pymatgen with grid density = 3000 / number of atoms
0
Gamma
3 4 7
