Sb8 S8 O36                              
   1.00000000000000     
     6.5998788592674877    0.0000000000000000    0.0000000000000004
     0.0000000000000011    6.5998788592674869    0.0000000000000004
     0.0000000000000000    0.0000000000000000   17.0644526031763917
   Sb   S    O 
     8     8    36
Direct
  0.8453759784031192  0.9860291929425813  0.3452505074250283
  0.9860291929425813  0.8453759784031192  0.6547494925749717
  0.1546240215968808  0.0139708070574187  0.8452505074250283
  0.0139708070574187  0.1546240215968808  0.1547494925749717
  0.5139708070574187  0.3453759784031192  0.5952505074250283
  0.6546240215968808  0.4860291929425813  0.9047494925749717
  0.4860291929425813  0.6546240215968808  0.0952505074250283
  0.3453759784031192  0.5139708070574187  0.4047494925749717
  0.3535086352296020  0.0332293208093120  0.3030328374667803
  0.0332293208093120  0.3535086352296020  0.6969671625332197
  0.4667706791906880  0.8535086352296020  0.5530328374667803
  0.1464913647703980  0.5332293208093120  0.9469671625332197
  0.5332293208093120  0.1464913647703980  0.0530328374667803
  0.9667706791906880  0.6464913647703980  0.1969671625332197
  0.8535086352296020  0.4667706791906880  0.4469671625332197
  0.6464913647703980  0.9667706791906880  0.8030328374667803
  0.3038030879401603  0.9576365388693517  0.5978328345585737
  0.7083485064963710  0.8883293067775995  0.7247261670791758
  0.3298731216016932  0.4611958563321252  0.9022221577085645
  0.5065459382905928  0.1391767892721703  0.7941762699957380
  0.3608232107278297  0.0065459382905928  0.0441762699957380
  0.3516461848420747  0.3516461848420747  0.5000000000000000
  0.1116706932224005  0.2916514935036290  0.7752738329208242
  0.4576365388693517  0.1961969120598397  0.3478328345585737
  0.0423634611306483  0.6961969120598397  0.9021671654414263
  0.8516461848420818  0.1483538151579253  0.2500000000000000
  0.9576365388693517  0.3038030879401603  0.4021671654414263
  0.8298731216016932  0.0388041436678748  0.8477778422914355
  0.1701268783983068  0.9611958563321252  0.3477778422914355
  0.0388041436678748  0.8298731216016932  0.1522221577085645
  0.4934540617094072  0.8608232107278297  0.2941762699957380
  0.6391767892721703  0.9934540617094072  0.5441762699957380
  0.8038030879401603  0.5423634611306483  0.1521671654414263
  0.6961969120598397  0.0423634611306483  0.0978328345585737
  0.7916514935036290  0.3883293067775995  0.5252738329208242
  0.1961969120598397  0.4576365388693517  0.6521671654414263
  0.1391767892721703  0.5065459382905928  0.2058237300042620
  0.0065459382905928  0.3608232107278297  0.9558237300042620
  0.6483538151579182  0.6483538151579182  0.0000000000000000
  0.4611958563321252  0.3298731216016932  0.0977778422914355
  0.8883293067775995  0.7083485064963710  0.2752738329208242
  0.5388041436678748  0.6701268783983068  0.5977778422914355
  0.8608232107278297  0.4934540617094072  0.7058237300042620
  0.3883293067775995  0.7916514935036290  0.4747261670791758
  0.2916514935036290  0.1116706932224005  0.2247261670791758
  0.2083485064963781  0.6116706932224005  0.0252738329208242
  0.9934540617094072  0.6391767892721703  0.4558237300042620
  0.6701268783983068  0.5388041436678748  0.4022221577085645
  0.9611958563321252  0.1701268783983068  0.6522221577085645
  0.5423634611306483  0.8038030879401603  0.8478328345585737
  0.1483538151579253  0.8516461848420818  0.7500000000000000
  0.6116706932224005  0.2083485064963781  0.9747261670791758
 
  0.00000000E+00  0.00000000E+00  0.00000000E+00
  0.00000000E+00  0.00000000E+00  0.00000000E+00
  0.00000000E+00  0.00000000E+00  0.00000000E+00
  0.00000000E+00  0.00000000E+00  0.00000000E+00
  0.00000000E+00  0.00000000E+00  0.00000000E+00
  0.00000000E+00  0.00000000E+00  0.00000000E+00
  0.00000000E+00  0.00000000E+00  0.00000000E+00
  0.00000000E+00  0.00000000E+00  0.00000000E+00
  0.00000000E+00  0.00000000E+00  0.00000000E+00
  0.00000000E+00  0.00000000E+00  0.00000000E+00
  0.00000000E+00  0.00000000E+00  0.00000000E+00
  0.00000000E+00  0.00000000E+00  0.00000000E+00
  0.00000000E+00  0.00000000E+00  0.00000000E+00
  0.00000000E+00  0.00000000E+00  0.00000000E+00
  0.00000000E+00  0.00000000E+00  0.00000000E+00
  0.00000000E+00  0.00000000E+00  0.00000000E+00
  0.00000000E+00  0.00000000E+00  0.00000000E+00
  0.00000000E+00  0.00000000E+00  0.00000000E+00
  0.00000000E+00  0.00000000E+00  0.00000000E+00
  0.00000000E+00  0.00000000E+00  0.00000000E+00
  0.00000000E+00  0.00000000E+00  0.00000000E+00
  0.00000000E+00  0.00000000E+00  0.00000000E+00
  0.00000000E+00  0.00000000E+00  0.00000000E+00
  0.00000000E+00  0.00000000E+00  0.00000000E+00
  0.00000000E+00  0.00000000E+00  0.00000000E+00
  0.00000000E+00  0.00000000E+00  0.00000000E+00
  0.00000000E+00  0.00000000E+00  0.00000000E+00
  0.00000000E+00  0.00000000E+00  0.00000000E+00
  0.00000000E+00  0.00000000E+00  0.00000000E+00
  0.00000000E+00  0.00000000E+00  0.00000000E+00
  0.00000000E+00  0.00000000E+00  0.00000000E+00
  0.00000000E+00  0.00000000E+00  0.00000000E+00
  0.00000000E+00  0.00000000E+00  0.00000000E+00
  0.00000000E+00  0.00000000E+00  0.00000000E+00
  0.00000000E+00  0.00000000E+00  0.00000000E+00
  0.00000000E+00  0.00000000E+00  0.00000000E+00
  0.00000000E+00  0.00000000E+00  0.00000000E+00
  0.00000000E+00  0.00000000E+00  0.00000000E+00
  0.00000000E+00  0.00000000E+00  0.00000000E+00
  0.00000000E+00  0.00000000E+00  0.00000000E+00
  0.00000000E+00  0.00000000E+00  0.00000000E+00
  0.00000000E+00  0.00000000E+00  0.00000000E+00
  0.00000000E+00  0.00000000E+00  0.00000000E+00
  0.00000000E+00  0.00000000E+00  0.00000000E+00
  0.00000000E+00  0.00000000E+00  0.00000000E+00
  0.00000000E+00  0.00000000E+00  0.00000000E+00
  0.00000000E+00  0.00000000E+00  0.00000000E+00
  0.00000000E+00  0.00000000E+00  0.00000000E+00
  0.00000000E+00  0.00000000E+00  0.00000000E+00
  0.00000000E+00  0.00000000E+00  0.00000000E+00
  0.00000000E+00  0.00000000E+00  0.00000000E+00
  0.00000000E+00  0.00000000E+00  0.00000000E+00
