
ALGO = Fast

ENCUT = 600
ISMEAR = 0
SIGMA = 0.05
EDIFF = 1.0E-6
PREC = Accurate
NELM = 200
NELMIN = 5

MAGMOM = 52*0.6
ISPIN = 1

LMAXMIX = 4

LASPH = True

IVDW = 12

IBRION = 2
ISIF = 2
EDIFFG = -0.01
NSW = 200

LWAVE = .FALSE.
LCHARG = .FALSE.
LREAL = Auto

NPAR = 8

