Non SCF run along symmetry lines
254
Reciprocal
0.0 0.0 0.0 1 \Gamma
0.022727272727272728 0.0 0.022727272727272728 1 
0.045454545454545456 0.0 0.045454545454545456 1 
0.06818181818181818 0.0 0.06818181818181818 1 
0.09090909090909091 0.0 0.09090909090909091 1 
0.11363636363636363 0.0 0.11363636363636363 1 
0.13636363636363635 0.0 0.13636363636363635 1 
0.1590909090909091 0.0 0.1590909090909091 1 
0.18181818181818182 0.0 0.18181818181818182 1 
0.20454545454545456 0.0 0.20454545454545456 1 
0.22727272727272727 0.0 0.22727272727272727 1 
0.24999999999999997 0.0 0.24999999999999997 1 
0.2727272727272727 0.0 0.2727272727272727 1 
0.29545454545454547 0.0 0.29545454545454547 1 
0.3181818181818182 0.0 0.3181818181818182 1 
0.3409090909090909 0.0 0.3409090909090909 1 
0.36363636363636365 0.0 0.36363636363636365 1 
0.3863636363636363 0.0 0.3863636363636363 1 
0.4090909090909091 0.0 0.4090909090909091 1 
0.43181818181818177 0.0 0.43181818181818177 1 
0.45454545454545453 0.0 0.45454545454545453 1 
0.4772727272727273 0.0 0.4772727272727273 1 
0.49999999999999994 0.0 0.49999999999999994 1 Y
0.49999999999999994 0.0 0.49999999999999994 1 Y
0.5416666666666666 0.04166666666666666 0.49999999999999994 1 
0.5833333333333333 0.08333333333333331 0.49999999999999994 1 
0.6249999999999999 0.12499999999999999 0.49999999999999994 1 
0.6666666666666665 0.16666666666666663 0.49999999999999994 1 
0.7083333333333333 0.20833333333333331 0.49999999999999994 1 
0.7499999999999999 0.24999999999999997 0.49999999999999994 1 
0.7916666666666667 0.2916666666666667 0.5000000000000001 1 
0.8333333333333333 0.33333333333333326 0.5000000000000001 1 
0.875 0.37499999999999994 0.5000000000000001 1 
0.9166666666666667 0.41666666666666663 0.5000000000000001 1 
0.9583333333333333 0.45833333333333326 0.5000000000000001 1 
1.0 0.49999999999999994 0.5000000000000001 1 T
1.0 0.49999999999999994 0.5000000000000001 1 T
0.9772727272727273 0.49999999999999994 0.47727272727272735 1 
0.9545454545454544 0.49999999999999994 0.45454545454545453 1 
0.9318181818181817 0.49999999999999994 0.4318181818181818 1 
0.909090909090909 0.49999999999999994 0.4090909090909091 1 
0.8863636363636362 0.49999999999999994 0.3863636363636364 1 
0.8636363636363635 0.49999999999999994 0.36363636363636365 1 
0.8409090909090908 0.49999999999999994 0.34090909090909094 1 
0.8181818181818181 0.49999999999999994 0.3181818181818182 1 
0.7954545454545454 0.49999999999999994 0.29545454545454547 1 
0.7727272727272727 0.49999999999999994 0.27272727272727276 1 
0.75 0.5 0.25000000000000006 1 
0.7272727272727273 0.5 0.2272727272727273 1 
0.7045454545454546 0.5 0.20454545454545456 1 
0.6818181818181819 0.5 0.18181818181818185 1 
0.6590909090909092 0.5 0.15909090909090917 1 
0.6363636363636364 0.5 0.13636363636363638 1 
0.6136363636363638 0.5 0.1136363636363637 1 
0.5909090909090909 0.5 0.09090909090909091 1 
0.5681818181818182 0.5 0.06818181818181823 1 
0.5454545454545455 0.5 0.04545454545454551 1 
0.5227272727272727 0.5 0.022727272727272728 1 
0.5 0.5 5.0759325246182876e-17 1 Z
0.5 0.5 0.0 1 Z
0.45833333333333337 0.45833333333333337 0.0 1 
0.4166666666666667 0.4166666666666667 0.0 1 
0.375 0.375 6.162975822039155e-33 1 
0.33333333333333337 0.33333333333333337 0.0 1 
0.2916666666666667 0.2916666666666667 0.0 1 
0.25 0.25 0.0 1 
0.20833333333333331 0.20833333333333331 3.0814879110195774e-33 1 
0.1666666666666667 0.1666666666666667 -3.0814879110195774e-33 1 
0.125 0.125 0.0 1 
0.08333333333333331 0.0833333333333333 1.5407439555097887e-33 1 
0.04166666666666666 0.04166666666666665 3.851859888774472e-33 1 
0.0 0.0 0.0 1 \Gamma
0.0 0.0 0.0 1 \Gamma
9.390649942559336e-20 0.009260146307027945 0.009260146307027945 1 
1.8781299885118672e-19 0.01852029261405589 0.01852029261405589 1 
2.817194982767801e-19 0.027780438921083835 0.02778043892108384 1 
3.7562599770237344e-19 0.03704058522811178 0.03704058522811178 1 
4.695324971279635e-19 0.04630073153513972 0.04630073153513973 1 
5.634389965535602e-19 0.05556087784216767 0.05556087784216768 1 
6.573454959791572e-19 0.06482102414919562 0.06482102414919562 1 
7.512519954047469e-19 0.07408117045622356 0.07408117045622356 1 
8.451584948303381e-19 0.0833413167632515 0.0833413167632515 1 
9.39064994255927e-19 0.09260146307027944 0.09260146307027946 1 
1.0329714936815245e-18 0.10186160937730737 0.10186160937730739 1 
1.1268779931071203e-18 0.11112175568433534 0.11112175568433535 1 
1.2207844925327177e-18 0.12038190199136327 0.12038190199136328 1 
1.3146909919583144e-18 0.12964204829839124 0.12964204829839124 1 
1.4085974913838971e-18 0.13890219460541917 0.13890219460541917 1 
1.5025039908094938e-18 0.14816234091244712 0.14816234091244712 1 
1.5964104902350904e-18 0.15742248721947505 0.15742248721947508 1 
1.6903169896606762e-18 0.166682633526503 0.166682633526503 1 
1.7842234890862713e-18 0.17594277983353096 0.175942779833531 1 
1.878129988511854e-18 0.1852029261405589 0.18520292614055892 1 
1.9720364879374507e-18 0.19446307244758682 0.19446307244758682 1 
2.065942987363049e-18 0.20372321875461474 0.20372321875461477 1 
2.1598494867886425e-18 0.21298336506164273 0.21298336506164273 1 
2.2537559862142406e-18 0.22224351136867068 0.2222435113686707 1 
2.347662485639825e-18 0.23150365767569858 0.23150365767569864 1 
2.4415689850654355e-18 0.24076380398272654 0.24076380398272657 1 
2.5354754844910306e-18 0.25002395028975455 0.25002395028975455 1 
2.6293819839166287e-18 0.2592840965967825 0.2592840965967825 1 
2.7232884833422084e-18 0.2685442429038104 0.2685442429038104 1 
2.8171949827677943e-18 0.27780438921083833 0.27780438921083833 1 
2.9111014821933894e-18 0.2870645355178663 0.2870645355178663 1 
3.0050079816189875e-18 0.29632468182489424 0.29632468182489424 1 
3.0989144810445857e-18 0.30558482813192217 0.30558482813192217 1 X
3.0989144810445857e-18 0.30558482813192217 0.30558482813192217 1 X
0.020833333333333336 0.3020243121213184 0.32285764545465173 1 
0.041666666666666664 0.2984637961107146 0.3401304627773813 1 
0.0625 0.2949032801001108 0.3574032801001108 1 
0.08333333333333331 0.291342764089507 0.37467609742284036 1 
0.10416666666666667 0.28778224807890324 0.3919489147455699 1 
0.12500000000000003 0.28422173206829937 0.4092217320682995 1 
0.14583333333333334 0.28066121605769556 0.426494549391029 1 
0.16666666666666666 0.2771007000470918 0.44376736671375855 1 
0.1875 0.27354018403648805 0.46104018403648817 1 
0.20833333333333337 0.26997966802588425 0.4783130013592177 1 
0.22916666666666669 0.26641915201528044 0.4955858186819472 1 
0.25 0.2628586360046766 0.5128586360046767 1 
0.2708333333333333 0.2592981199940729 0.5301314533274063 1 
0.2916666666666667 0.25573760398346906 0.5474042706501359 1 
0.3125 0.25217708797286525 0.5646770879728653 1 
0.3333333333333333 0.24861657196226147 0.5819499052955949 1 
0.3541666666666667 0.24505605595165772 0.5992227226183245 1 
0.375 0.2414955399410539 0.616495539941054 1 
0.3958333333333333 0.2379350239304501 0.6337683572637836 1 
0.41666666666666674 0.23437450791984632 0.6510411745865132 1 
0.4375 0.23081399190924257 0.6683139919092427 1 
0.45833333333333337 0.22725347589863876 0.6855868092319722 1 
0.4791666666666667 0.22369295988803495 0.7028596265547017 1 
0.49999999999999994 0.22013244387743117 0.7201324438774312 1 A_1
0.49999999999999994 0.22013244387743117 0.7201324438774312 1 A_1
0.49999999999999994 0.21096025871587154 0.7109602587158717 1 
0.49999999999999994 0.2017880735543119 0.7017880735543119 1 
0.49999999999999994 0.1926158883927523 0.6926158883927523 1 
0.49999999999999994 0.18344370323119263 0.6834437032311927 1 
0.49999999999999994 0.174271518069633 0.674271518069633 1 
0.49999999999999994 0.16509933290807335 0.6650993329080734 1 
0.49999999999999994 0.15592714774651376 0.6559271477465138 1 
0.49999999999999994 0.14675496258495413 0.6467549625849542 1 
0.49999999999999994 0.13758277742339448 0.6375827774233945 1 
0.49999999999999994 0.12841059226183485 0.6284105922618348 1 
0.49999999999999994 0.11923840710027522 0.6192384071002752 1 
0.49999999999999994 0.11006622193871558 0.6100662219387156 1 
0.5 0.10089403677715597 0.600894036777156 1 
0.5 0.0917218516155963 0.5917218516155963 1 
0.5 0.08254966645403669 0.5825496664540367 1 
0.5 0.07337748129247706 0.573377481292477 1 
0.5 0.06420529613091741 0.5642052961309174 1 
0.49999999999999994 0.05503311096935779 0.5550331109693578 1 
0.49999999999999994 0.04586092580779817 0.5458609258077981 1 
0.49999999999999994 0.036688740646238525 0.5366887406462385 1 
0.49999999999999994 0.027516555484678885 0.5275165554846788 1 
0.49999999999999994 0.018344370323119273 0.5183443703231192 1 
0.49999999999999994 0.009172185161559616 0.5091721851615596 1 
0.49999999999999994 0.0 0.49999999999999994 1 Y
1.0 0.49999999999999994 0.5000000000000001 1 T
1.0 0.5092578653270513 0.5092578653270514 1 
1.0 0.5185157306541026 0.5185157306541027 1 
1.0 0.5277735959811539 0.5277735959811541 1 
1.0 0.5370314613082052 0.5370314613082054 1 
1.0 0.5462893266352565 0.5462893266352568 1 
1.0 0.5555471919623078 0.5555471919623081 1 
1.0 0.5648050572893593 0.5648050572893594 1 
1.0 0.5740629226164106 0.5740629226164107 1 
1.0 0.5833207879434619 0.5833207879434621 1 
1.0 0.5925786532705132 0.5925786532705134 1 
0.9999999999999998 0.6018365185975644 0.6018365185975646 1 
0.9999999999999998 0.6110943839246157 0.6110943839246159 1 
0.9999999999999998 0.6203522492516671 0.6203522492516672 1 
0.9999999999999998 0.6296101145787184 0.6296101145787185 1 
0.9999999999999998 0.6388679799057697 0.6388679799057698 1 
0.9999999999999998 0.648125845232821 0.6481258452328211 1 
0.9999999999999998 0.6573837105598723 0.6573837105598725 1 
0.9999999999999998 0.6666415758869236 0.6666415758869239 1 
0.9999999999999998 0.6758994412139749 0.6758994412139752 1 
0.9999999999999998 0.6851573065410264 0.6851573065410265 1 
0.9999999999999998 0.6944151718680777 0.6944151718680778 1 X_1
3.0989144810445857e-18 0.30558482813192217 0.30558482813192217 1 X
0.038461538461538464 0.34206811490043343 0.303606576438895 1 
0.07692307692307691 0.37855140166894474 0.3016283247458678 1 
0.11538461538461535 0.41503468843745595 0.29965007305284064 1 
0.15384615384615383 0.4515179752059672 0.2976718213598134 1 
0.1923076923076923 0.48800126197447846 0.2956935696667862 1 
0.23076923076923075 0.5244845487429898 0.29371531797375905 1 
0.2692307692307692 0.5609678355115011 0.2917370662807319 1 
0.3076923076923077 0.5974511222800123 0.2897588145877047 1 
0.3461538461538461 0.6339344090485235 0.2877805628946775 1 
0.3846153846153846 0.6704176958170349 0.2858023112016503 1 
0.42307692307692296 0.7069009825855461 0.2838240595086231 1 
0.46153846153846145 0.7433842693540573 0.28184580781559593 1 
0.4999999999999999 0.7798675561225686 0.27986755612256875 1 A
0.4999999999999999 0.7798675561225686 0.27986755612256875 1 A
0.4999999999999999 0.7705386375851497 0.27053863758514973 1 
0.4999999999999999 0.7612097190477307 0.2612097190477308 1 
0.4999999999999999 0.7518808005103118 0.25188080051031186 1 
0.4999999999999999 0.7425518819728929 0.2425518819728929 1 
0.4999999999999999 0.7332229634354739 0.23322296343547394 1 
0.4999999999999999 0.7238940448980549 0.22389404489805498 1 
0.4999999999999999 0.714565126360636 0.214565126360636 1 
0.4999999999999999 0.705236207823217 0.20523620782321708 1 
0.4999999999999999 0.695907289285798 0.1959072892857981 1 
0.4999999999999999 0.6865783707483791 0.18657837074837916 1 
0.4999999999999999 0.6772494522109601 0.1772494522109602 1 
0.4999999999999999 0.6679205336735412 0.16792053367354123 1 
0.4999999999999999 0.6585916151361222 0.1585916151361223 1 
0.4999999999999999 0.6492626965987033 0.1492626965987033 1 
0.5 0.6399337780612844 0.13993377806128438 1 
0.5 0.6306048595238654 0.1306048595238654 1 
0.5 0.6212759409864465 0.12127594098644645 1 
0.5 0.6119470224490275 0.1119470224490275 1 
0.5 0.6026181039116085 0.10261810391160854 1 
0.5 0.5932891853741896 0.09328918537418959 1 
0.5 0.5839602668367706 0.08396026683677062 1 
0.5 0.5746313482993517 0.07463134829935165 1 
0.5 0.5653024297619327 0.06530242976193269 1 
0.5 0.5559735112245137 0.055973511224513724 1 
0.5 0.5466445926870948 0.0466445926870948 1 
0.5 0.5373156741496758 0.03731567414967583 1 
0.5 0.5279867556122568 0.027986755612256862 1 
0.5 0.5186578370748379 0.018657837074837893 1 
0.5 0.509328918537419 0.009328918537418967 1 
0.5 0.5 0.0 1 Z
0.5 0.5 0.5 1 L
0.4833333333333334 0.4833333333333334 0.4833333333333334 1 
0.46666666666666673 0.4666666666666667 0.4666666666666667 1 
0.45000000000000007 0.45 0.45000000000000007 1 
0.43333333333333335 0.43333333333333335 0.43333333333333335 1 
0.4166666666666667 0.4166666666666667 0.41666666666666674 1 
0.4 0.4 0.4 1 
0.38333333333333336 0.38333333333333336 0.3833333333333334 1 
0.3666666666666667 0.3666666666666667 0.3666666666666667 1 
0.35000000000000003 0.35 0.35000000000000003 1 
0.33333333333333337 0.33333333333333337 0.33333333333333337 1 
0.3166666666666667 0.31666666666666665 0.3166666666666667 1 
0.30000000000000004 0.30000000000000004 0.30000000000000004 1 
0.2833333333333333 0.2833333333333333 0.2833333333333333 1 
0.2666666666666666 0.26666666666666666 0.26666666666666666 1 
0.25 0.25 0.25 1 
0.23333333333333336 0.23333333333333334 0.23333333333333334 1 
0.21666666666666667 0.21666666666666667 0.21666666666666667 1 
0.2 0.2 0.2 1 
0.18333333333333335 0.18333333333333335 0.18333333333333338 1 
0.16666666666666669 0.16666666666666669 0.16666666666666669 1 
0.15000000000000002 0.15000000000000002 0.15000000000000005 1 
0.13333333333333336 0.13333333333333336 0.13333333333333336 1 
0.11666666666666664 0.11666666666666664 0.11666666666666664 1 
0.09999999999999998 0.09999999999999998 0.09999999999999998 1 
0.08333333333333333 0.0833333333333333 0.08333333333333333 1 
0.06666666666666665 0.06666666666666665 0.06666666666666665 1 
0.05 0.05 0.04999999999999999 1 
0.033333333333333284 0.0333333333333333 0.03333333333333331 1 
0.01666666666666667 0.01666666666666665 0.01666666666666668 1 
0.0 0.0 0.0 1 \Gamma
