Te4 H4 O6 F8                            
   1.00000000000000     
    10.7013289826827478    0.0506386808156511    5.3074090995819558
     9.7776072250868733    4.3466365293635629    0.9095221233078836
     0.0012512000340152   -0.0058190170598850    6.2169312217570623
   Te   H    O    F 
     4     4     6     8
Direct
  0.6932615769058330  0.4099108576656931  0.0831652055243737
  0.8136613599040885  0.0831652055242955  0.4099108576657358
  0.8400891423342571  0.5567384230941457  0.4363386400959541
  0.1668347944756619  0.4363386400958404  0.5567384230941528
  0.4346006053994174  0.7683705955741331  0.8097447738869121
  0.9872840251390116  0.8097447738873811  0.7683705955746305
  0.4816294044253553  0.8153993946010658  0.2627159748609955
  0.4402552261130879  0.2627159748604555  0.8153993946005613
  0.7928437813573197  0.7071562186427300  0.7071562186426732
  0.5428437813573197  0.4571562186427300  0.4571562186426732
  0.6419025864987873  0.5946443390053062  0.7267163815450672
  0.0367366929505124  0.7267163815453941  0.5946443390056189
  0.6553556609943882  0.6080974135014827  0.2132633070494592
  0.5232836184549043  0.2132633070492105  0.6080974135012198
  0.5744291725341668  0.3473755051958349  0.8390262056104234
  0.2391701166595794  0.8390262056105655  0.3473755051958278
  0.9026244948042006  0.6755708274659469  0.0108298833404135
  0.4109737943895411  0.0108298833404419  0.6755708274658474
  0.2079755670934986  0.1537941626060970  0.3609957547426532
  0.2772355155577770  0.3609957547425608  0.1537941626060686
  0.0962058373939314  0.0420244329064019  0.9727644844421945
  0.8890042452573539  0.9727644844422656  0.0420244329065227
 
  0.00000000E+00  0.00000000E+00  0.00000000E+00
  0.00000000E+00  0.00000000E+00  0.00000000E+00
  0.00000000E+00  0.00000000E+00  0.00000000E+00
  0.00000000E+00  0.00000000E+00  0.00000000E+00
  0.00000000E+00  0.00000000E+00  0.00000000E+00
  0.00000000E+00  0.00000000E+00  0.00000000E+00
  0.00000000E+00  0.00000000E+00  0.00000000E+00
  0.00000000E+00  0.00000000E+00  0.00000000E+00
  0.00000000E+00  0.00000000E+00  0.00000000E+00
  0.00000000E+00  0.00000000E+00  0.00000000E+00
  0.00000000E+00  0.00000000E+00  0.00000000E+00
  0.00000000E+00  0.00000000E+00  0.00000000E+00
  0.00000000E+00  0.00000000E+00  0.00000000E+00
  0.00000000E+00  0.00000000E+00  0.00000000E+00
  0.00000000E+00  0.00000000E+00  0.00000000E+00
  0.00000000E+00  0.00000000E+00  0.00000000E+00
  0.00000000E+00  0.00000000E+00  0.00000000E+00
  0.00000000E+00  0.00000000E+00  0.00000000E+00
  0.00000000E+00  0.00000000E+00  0.00000000E+00
  0.00000000E+00  0.00000000E+00  0.00000000E+00
  0.00000000E+00  0.00000000E+00  0.00000000E+00
  0.00000000E+00  0.00000000E+00  0.00000000E+00
