
ALGO = Fast

ICHARG = 11
LORBIT = 11

ENCUT = 600
ISMEAR = 0
SIGMA = 0.05
EDIFF = 1.0E-6
PREC = Accurate
NELM = 200

MAGMOM = 20*0.6
ISPIN = 1

LMAXMIX = 6

LASPH = True

IVDW = 12

LWAVE = .FALSE.
LCHARG = .FALSE.
LREAL = Auto

NPAR = 4

