Non SCF run along symmetry lines
157
Reciprocal
0.0 0.0 0.0 1 \Gamma
0.0217391304347826 0.0 0.021739130434782605 1 
0.0434782608695652 0.0 0.04347826086956521 1 
0.0652173913043478 1.5407439555097887e-33 0.06521739130434781 1 
0.0869565217391304 0.0 0.08695652173913042 1 
0.10869565217391301 3.0814879110195774e-33 0.10869565217391301 1 
0.1304347826086956 3.0814879110195774e-33 0.13043478260869562 1 
0.15217391304347824 6.162975822039155e-33 0.15217391304347824 1 
0.1739130434782608 0.0 0.17391304347826084 1 
0.19565217391304343 3.0814879110195774e-33 0.19565217391304343 1 
0.21739130434782603 6.162975822039155e-33 0.21739130434782603 1 
0.23913043478260862 3.0814879110195774e-33 0.23913043478260862 1 
0.2608695652173912 6.162975822039155e-33 0.26086956521739124 1 
0.28260869565217384 1.232595164407831e-32 0.28260869565217384 1 
0.3043478260869565 1.232595164407831e-32 0.3043478260869565 1 
0.3260869565217391 0.0 0.3260869565217391 1 
0.3478260869565216 0.0 0.3478260869565217 1 
0.3695652173913042 1.232595164407831e-32 0.36956521739130427 1 
0.39130434782608686 6.162975822039155e-33 0.39130434782608686 1 
0.4130434782608694 6.162975822039155e-33 0.41304347826086946 1 
0.43478260869565205 1.232595164407831e-32 0.43478260869565205 1 
0.4565217391304346 1.232595164407831e-32 0.4565217391304346 1 
0.47826086956521724 6.162975822039155e-33 0.47826086956521724 1 
0.49999999999999983 1.232595164407831e-32 0.4999999999999999 1 X
0.49999999999999983 1.232595164407831e-32 0.4999999999999999 1 X
0.49999999999999983 0.020833333333333325 0.5208333333333333 1 
0.49999999999999983 0.04166666666666665 0.5416666666666665 1 
0.49999999999999983 0.062499999999999986 0.5624999999999999 1 
0.49999999999999983 0.08333333333333333 0.5833333333333333 1 
0.49999999999999983 0.10416666666666667 0.6041666666666666 1 
0.49999999999999983 0.12499999999999999 0.6249999999999999 1 
0.4999999999999998 0.14583333333333334 0.6458333333333333 1 
0.4999999999999998 0.16666666666666663 0.6666666666666665 1 
0.4999999999999998 0.18749999999999997 0.6874999999999999 1 
0.4999999999999998 0.20833333333333331 0.7083333333333333 1 
0.4999999999999998 0.22916666666666666 0.7291666666666666 1 
0.4999999999999998 0.24999999999999997 0.7499999999999999 1 W
0.4999999999999998 0.24999999999999997 0.7499999999999999 1 W
0.48437499999999983 0.26562499999999994 0.7499999999999999 1 
0.46874999999999983 0.28125 0.75 1 
0.4531249999999998 0.296875 0.7499999999999999 1 
0.4374999999999998 0.3125 0.7499999999999999 1 
0.42187499999999983 0.32812499999999994 0.75 1 
0.40624999999999983 0.34375 0.75 1 
0.3906249999999999 0.359375 0.75 1 
0.37499999999999983 0.375 0.75 1 K
0.37499999999999983 0.375 0.75 1 K
0.3593749999999999 0.359375 0.71875 1 
0.34374999999999983 0.34375 0.6874999999999999 1 
0.3281249999999999 0.328125 0.65625 1 
0.3124999999999999 0.31250000000000006 0.625 1 
0.2968749999999999 0.296875 0.59375 1 
0.2812499999999999 0.28125 0.5625 1 
0.2656249999999999 0.265625 0.53125 1 
0.24999999999999986 0.25 0.5 1 
0.2343749999999999 0.23437499999999997 0.46875 1 
0.21874999999999986 0.21874999999999997 0.43749999999999994 1 
0.2031249999999999 0.203125 0.40625 1 
0.18749999999999992 0.1875 0.375 1 
0.17187499999999994 0.17187500000000003 0.34375 1 
0.15624999999999992 0.15625 0.31249999999999994 1 
0.14062499999999992 0.140625 0.28125 1 
0.12499999999999993 0.125 0.25 1 
0.1093749999999999 0.10937499999999997 0.21874999999999994 1 
0.09374999999999994 0.09375 0.1875 1 
0.07812499999999997 0.07812500000000001 0.15625 1 
0.062499999999999944 0.06249999999999998 0.12499999999999994 1 
0.04687499999999997 0.046875 0.09375 1 
0.031249999999999997 0.031250000000000014 0.06250000000000003 1 
0.015624999999999974 0.015624999999999983 0.031249999999999965 1 
0.0 0.0 0.0 1 \Gamma
0.0 0.0 0.0 1 \Gamma
0.024999999999999994 0.025 0.025 1 
0.04999999999999999 0.05 0.05 1 
0.07499999999999998 0.075 0.075 1 
0.09999999999999998 0.1 0.1 1 
0.12499999999999996 0.125 0.12499999999999999 1 
0.14999999999999997 0.15 0.15 1 
0.17499999999999993 0.175 0.175 1 
0.19999999999999996 0.2 0.2 1 
0.22499999999999998 0.22500000000000003 0.225 1 
0.24999999999999992 0.25 0.24999999999999997 1 
0.2749999999999999 0.275 0.275 1 
0.29999999999999993 0.3 0.3 1 
0.32499999999999996 0.325 0.325 1 
0.34999999999999987 0.35 0.35 1 
0.3749999999999999 0.375 0.375 1 
0.3999999999999999 0.4 0.4 1 
0.4249999999999999 0.425 0.425 1 
0.44999999999999996 0.45000000000000007 0.45 1 
0.47499999999999987 0.475 0.4749999999999999 1 
0.49999999999999983 0.5 0.49999999999999994 1 L
0.49999999999999983 0.5 0.49999999999999994 1 L
0.5089285714285713 0.4821428571428571 0.5089285714285714 1 
0.5178571428571427 0.4642857142857143 0.5178571428571428 1 
0.5267857142857142 0.4464285714285714 0.5267857142857142 1 
0.5357142857142856 0.4285714285714285 0.5357142857142856 1 
0.544642857142857 0.4107142857142857 0.5446428571428571 1 
0.5535714285714284 0.3928571428571428 0.5535714285714285 1 
0.5624999999999998 0.3749999999999999 0.5624999999999999 1 
0.5714285714285712 0.3571428571428571 0.5714285714285713 1 
0.5803571428571427 0.3392857142857142 0.5803571428571428 1 
0.5892857142857142 0.3214285714285714 0.5892857142857142 1 
0.5982142857142856 0.3035714285714286 0.5982142857142856 1 
0.607142857142857 0.2857142857142857 0.6071428571428571 1 
0.6160714285714284 0.2678571428571428 0.6160714285714285 1 
0.6249999999999998 0.24999999999999997 0.6249999999999999 1 U
0.6249999999999998 0.24999999999999997 0.6249999999999999 1 U
0.6093749999999998 0.25 0.6406249999999999 1 
0.5937499999999998 0.24999999999999997 0.6562499999999999 1 
0.5781249999999998 0.25 0.6718749999999999 1 
0.5624999999999998 0.24999999999999994 0.6874999999999999 1 
0.5468749999999998 0.24999999999999997 0.7031249999999999 1 
0.5312499999999998 0.24999999999999997 0.7187499999999999 1 
0.5156249999999998 0.25 0.734375 1 
0.4999999999999998 0.24999999999999997 0.7499999999999999 1 W
0.4999999999999998 0.24999999999999997 0.7499999999999999 1 W
0.49999999999999983 0.26562499999999994 0.7343749999999999 1 
0.49999999999999983 0.28125 0.7187499999999999 1 
0.4999999999999998 0.296875 0.7031249999999999 1 
0.4999999999999998 0.3125 0.6874999999999999 1 
0.49999999999999983 0.328125 0.6718749999999999 1 
0.4999999999999998 0.34374999999999994 0.6562499999999999 1 
0.4999999999999999 0.35937499999999994 0.6406249999999999 1 
0.4999999999999998 0.37499999999999994 0.6249999999999999 1 
0.4999999999999998 0.390625 0.6093749999999999 1 
0.4999999999999998 0.40625 0.5937499999999999 1 
0.4999999999999999 0.421875 0.5781249999999999 1 
0.4999999999999999 0.43749999999999994 0.5624999999999999 1 
0.4999999999999999 0.453125 0.5468749999999999 1 
0.4999999999999999 0.46875 0.5312499999999999 1 
0.4999999999999999 0.484375 0.5156249999999999 1 
0.49999999999999983 0.5 0.49999999999999994 1 L
0.49999999999999983 0.5 0.49999999999999994 1 L
0.4910714285714285 0.4910714285714285 0.5178571428571428 1 
0.482142857142857 0.48214285714285704 0.5357142857142856 1 
0.47321428571428553 0.47321428571428564 0.5535714285714284 1 
0.46428571428571414 0.4642857142857142 0.5714285714285714 1 
0.4553571428571427 0.4553571428571429 0.5892857142857142 1 
0.4464285714285713 0.4464285714285714 0.6071428571428571 1 
0.4374999999999999 0.4375 0.625 1 
0.42857142857142844 0.42857142857142855 0.6428571428571428 1 
0.419642857142857 0.41964285714285715 0.6607142857142856 1 
0.4107142857142856 0.41071428571428575 0.6785714285714286 1 
0.40178571428571414 0.40178571428571425 0.6964285714285714 1 
0.3928571428571427 0.39285714285714285 0.7142857142857143 1 
0.3839285714285713 0.3839285714285714 0.7321428571428571 1 
0.37499999999999983 0.375 0.75 1 K
0.6249999999999998 0.24999999999999997 0.6249999999999999 1 U
0.6093749999999998 0.21875 0.6093749999999999 1 
0.5937499999999998 0.1875 0.5937499999999999 1 
0.5781249999999998 0.15625 0.5781249999999999 1 
0.5624999999999998 0.12499999999999997 0.5624999999999999 1 
0.5468749999999998 0.09375 0.5468749999999999 1 
0.5312499999999998 0.06249999999999999 0.5312499999999999 1 
0.5156249999999998 0.031249999999999997 0.5156249999999999 1 
0.49999999999999983 1.232595164407831e-32 0.4999999999999999 1 X
