Bi32 O48                                
   1.00000000000000     
    11.2407532371293648    0.0000000000000000    0.0000000000000007
     0.0000000000000018   11.2407532371293648    0.0000000000000007
     0.0000000000000000    0.0000000000000000   11.2407532371293648
   Bi   O 
    32    48
Direct
  0.2479089590335875  0.7520910409664125  0.2520910409664125
  0.7520910409664125  0.2520910409664125  0.2479089590335875
  0.2520910409664125  0.2479089590335875  0.7520910409664125
  0.7479089590335875  0.7479089590335875  0.7479089590335875
  0.7520910409664125  0.2479089590335875  0.7479089590335875
  0.2479089590335875  0.7479089590335875  0.7520910409664125
  0.7479089590335875  0.7520910409664125  0.2479089590335875
  0.2520910409664125  0.2520910409664125  0.2520910409664125
  0.2443044024568835  0.4765851336935967  0.9953194172767681
  0.7556955975431165  0.9765851336935967  0.5046805827232319
  0.2556955975431165  0.5234148663064033  0.4953194172767681
  0.7443044024568835  0.0234148663064033  0.0046805827232319
  0.9953194172767681  0.2443044024568835  0.4765851336935967
  0.5046805827232319  0.7556955975431165  0.9765851336935967
  0.4953194172767681  0.2556955975431165  0.5234148663064033
  0.0046805827232319  0.7443044024568835  0.0234148663064033
  0.4765851336935967  0.9953194172767681  0.2443044024568835
  0.9765851336935967  0.5046805827232319  0.7556955975431165
  0.5234148663064033  0.4953194172767681  0.2556955975431165
  0.0234148663064033  0.0046805827232319  0.7443044024568835
  0.7556955975431165  0.5234148663064033  0.0046805827232319
  0.2443044024568835  0.0234148663064033  0.4953194172767681
  0.7443044024568835  0.4765851336935967  0.5046805827232319
  0.2556955975431165  0.9765851336935967  0.9953194172767681
  0.0046805827232319  0.7556955975431165  0.5234148663064033
  0.4953194172767681  0.2443044024568835  0.0234148663064033
  0.5046805827232319  0.7443044024568835  0.4765851336935967
  0.9953194172767681  0.2556955975431165  0.9765851336935967
  0.5234148663064033  0.0046805827232319  0.7556955975431165
  0.0234148663064033  0.4953194172767681  0.2443044024568835
  0.4765851336935967  0.5046805827232319  0.7443044024568835
  0.9765851336935967  0.9953194172767681  0.2556955975431165
  0.3651571514034515  0.1198169421919886  0.0899736795899457
  0.6348428485965485  0.6198169421919886  0.4100263204100543
  0.1348428485965485  0.8801830578080114  0.5899736795899457
  0.8651571514034515  0.3801830578080114  0.9100263204100543
  0.0899736795899457  0.3651571514034515  0.1198169421919886
  0.4100263204100543  0.6348428485965485  0.6198169421919886
  0.5899736795899457  0.1348428485965485  0.8801830578080114
  0.9100263204100543  0.8651571514034515  0.3801830578080114
  0.1198169421919886  0.0899736795899457  0.3651571514034515
  0.6198169421919886  0.4100263204100543  0.6348428485965485
  0.8801830578080114  0.5899736795899457  0.1348428485965485
  0.3801830578080114  0.9100263204100543  0.8651571514034515
  0.6348428485965485  0.8801830578080114  0.9100263204100543
  0.3651571514034515  0.3801830578080114  0.5899736795899457
  0.8651571514034515  0.1198169421919886  0.4100263204100543
  0.1348428485965485  0.6198169421919886  0.0899736795899457
  0.9100263204100543  0.6348428485965485  0.8801830578080114
  0.5899736795899457  0.3651571514034515  0.3801830578080114
  0.4100263204100543  0.8651571514034515  0.1198169421919886
  0.0899736795899457  0.1348428485965485  0.6198169421919886
  0.8801830578080114  0.9100263204100543  0.6348428485965485
  0.3801830578080114  0.5899736795899457  0.3651571514034515
  0.1198169421919886  0.4100263204100543  0.8651571514034515
  0.6198169421919886  0.0899736795899457  0.1348428485965485
  0.8230745454090567  0.6080170494360715  0.6322859323065373
  0.1769254545909433  0.1080170494360715  0.8677140676934627
  0.6769254545909433  0.3919829505639285  0.1322859323065373
  0.3230745454090567  0.8919829505639285  0.3677140676934627
  0.6322859323065373  0.8230745454090567  0.6080170494360715
  0.8677140676934627  0.1769254545909433  0.1080170494360715
  0.1322859323065373  0.6769254545909433  0.3919829505639285
  0.3677140676934627  0.3230745454090567  0.8919829505639285
  0.6080170494360715  0.6322859323065373  0.8230745454090567
  0.1080170494360715  0.8677140676934627  0.1769254545909433
  0.3919829505639285  0.1322859323065373  0.6769254545909433
  0.8919829505639285  0.3677140676934627  0.3230745454090567
  0.1769254545909433  0.3919829505639285  0.3677140676934627
  0.8230745454090567  0.8919829505639285  0.1322859323065373
  0.3230745454090567  0.6080170494360715  0.8677140676934627
  0.6769254545909433  0.1080170494360715  0.6322859323065373
  0.3677140676934627  0.1769254545909433  0.3919829505639285
  0.1322859323065373  0.8230745454090567  0.8919829505639285
  0.8677140676934627  0.3230745454090567  0.6080170494360715
  0.6322859323065373  0.6769254545909433  0.1080170494360715
  0.3919829505639285  0.3677140676934627  0.1769254545909433
  0.8919829505639285  0.1322859323065373  0.8230745454090567
  0.6080170494360715  0.8677140676934627  0.3230745454090567
  0.1080170494360715  0.6322859323065373  0.6769254545909433
 
  0.00000000E+00  0.00000000E+00  0.00000000E+00
  0.00000000E+00  0.00000000E+00  0.00000000E+00
  0.00000000E+00  0.00000000E+00  0.00000000E+00
  0.00000000E+00  0.00000000E+00  0.00000000E+00
  0.00000000E+00  0.00000000E+00  0.00000000E+00
  0.00000000E+00  0.00000000E+00  0.00000000E+00
  0.00000000E+00  0.00000000E+00  0.00000000E+00
  0.00000000E+00  0.00000000E+00  0.00000000E+00
  0.00000000E+00  0.00000000E+00  0.00000000E+00
  0.00000000E+00  0.00000000E+00  0.00000000E+00
  0.00000000E+00  0.00000000E+00  0.00000000E+00
  0.00000000E+00  0.00000000E+00  0.00000000E+00
  0.00000000E+00  0.00000000E+00  0.00000000E+00
  0.00000000E+00  0.00000000E+00  0.00000000E+00
  0.00000000E+00  0.00000000E+00  0.00000000E+00
  0.00000000E+00  0.00000000E+00  0.00000000E+00
  0.00000000E+00  0.00000000E+00  0.00000000E+00
  0.00000000E+00  0.00000000E+00  0.00000000E+00
  0.00000000E+00  0.00000000E+00  0.00000000E+00
  0.00000000E+00  0.00000000E+00  0.00000000E+00
  0.00000000E+00  0.00000000E+00  0.00000000E+00
  0.00000000E+00  0.00000000E+00  0.00000000E+00
  0.00000000E+00  0.00000000E+00  0.00000000E+00
  0.00000000E+00  0.00000000E+00  0.00000000E+00
  0.00000000E+00  0.00000000E+00  0.00000000E+00
  0.00000000E+00  0.00000000E+00  0.00000000E+00
  0.00000000E+00  0.00000000E+00  0.00000000E+00
  0.00000000E+00  0.00000000E+00  0.00000000E+00
  0.00000000E+00  0.00000000E+00  0.00000000E+00
  0.00000000E+00  0.00000000E+00  0.00000000E+00
  0.00000000E+00  0.00000000E+00  0.00000000E+00
  0.00000000E+00  0.00000000E+00  0.00000000E+00
  0.00000000E+00  0.00000000E+00  0.00000000E+00
  0.00000000E+00  0.00000000E+00  0.00000000E+00
  0.00000000E+00  0.00000000E+00  0.00000000E+00
  0.00000000E+00  0.00000000E+00  0.00000000E+00
  0.00000000E+00  0.00000000E+00  0.00000000E+00
  0.00000000E+00  0.00000000E+00  0.00000000E+00
  0.00000000E+00  0.00000000E+00  0.00000000E+00
  0.00000000E+00  0.00000000E+00  0.00000000E+00
  0.00000000E+00  0.00000000E+00  0.00000000E+00
  0.00000000E+00  0.00000000E+00  0.00000000E+00
  0.00000000E+00  0.00000000E+00  0.00000000E+00
  0.00000000E+00  0.00000000E+00  0.00000000E+00
  0.00000000E+00  0.00000000E+00  0.00000000E+00
  0.00000000E+00  0.00000000E+00  0.00000000E+00
  0.00000000E+00  0.00000000E+00  0.00000000E+00
  0.00000000E+00  0.00000000E+00  0.00000000E+00
  0.00000000E+00  0.00000000E+00  0.00000000E+00
  0.00000000E+00  0.00000000E+00  0.00000000E+00
  0.00000000E+00  0.00000000E+00  0.00000000E+00
  0.00000000E+00  0.00000000E+00  0.00000000E+00
  0.00000000E+00  0.00000000E+00  0.00000000E+00
  0.00000000E+00  0.00000000E+00  0.00000000E+00
  0.00000000E+00  0.00000000E+00  0.00000000E+00
  0.00000000E+00  0.00000000E+00  0.00000000E+00
  0.00000000E+00  0.00000000E+00  0.00000000E+00
  0.00000000E+00  0.00000000E+00  0.00000000E+00
  0.00000000E+00  0.00000000E+00  0.00000000E+00
  0.00000000E+00  0.00000000E+00  0.00000000E+00
  0.00000000E+00  0.00000000E+00  0.00000000E+00
  0.00000000E+00  0.00000000E+00  0.00000000E+00
  0.00000000E+00  0.00000000E+00  0.00000000E+00
  0.00000000E+00  0.00000000E+00  0.00000000E+00
  0.00000000E+00  0.00000000E+00  0.00000000E+00
  0.00000000E+00  0.00000000E+00  0.00000000E+00
  0.00000000E+00  0.00000000E+00  0.00000000E+00
  0.00000000E+00  0.00000000E+00  0.00000000E+00
  0.00000000E+00  0.00000000E+00  0.00000000E+00
  0.00000000E+00  0.00000000E+00  0.00000000E+00
  0.00000000E+00  0.00000000E+00  0.00000000E+00
  0.00000000E+00  0.00000000E+00  0.00000000E+00
  0.00000000E+00  0.00000000E+00  0.00000000E+00
  0.00000000E+00  0.00000000E+00  0.00000000E+00
  0.00000000E+00  0.00000000E+00  0.00000000E+00
  0.00000000E+00  0.00000000E+00  0.00000000E+00
  0.00000000E+00  0.00000000E+00  0.00000000E+00
  0.00000000E+00  0.00000000E+00  0.00000000E+00
  0.00000000E+00  0.00000000E+00  0.00000000E+00
  0.00000000E+00  0.00000000E+00  0.00000000E+00
