Non SCF run along symmetry lines
94
Reciprocal
0.0 0.0 0.0 1 \Gamma
0.0 0.041666666666666664 0.0 1 
0.0 0.08333333333333333 0.0 1 
0.0 0.125 0.0 1 
0.0 0.16666666666666666 0.0 1 
0.0 0.20833333333333334 0.0 1 
0.0 0.25 0.0 1 
0.0 0.2916666666666667 0.0 1 
0.0 0.3333333333333333 0.0 1 
0.0 0.375 0.0 1 
0.0 0.4166666666666667 0.0 1 
0.0 0.45833333333333326 0.0 1 
0.0 0.5 0.0 1 X
0.0 0.5 0.0 1 X
0.041666666666666664 0.5 0.0 1 
0.08333333333333333 0.5 0.0 1 
0.125 0.5 0.0 1 
0.16666666666666666 0.5 0.0 1 
0.20833333333333334 0.5 0.0 1 
0.25 0.5 0.0 1 
0.2916666666666667 0.49999999999999994 0.0 1 
0.3333333333333333 0.49999999999999994 0.0 1 
0.375 0.49999999999999994 0.0 1 
0.4166666666666667 0.49999999999999994 0.0 1 
0.45833333333333326 0.49999999999999994 0.0 1 
0.5 0.49999999999999994 0.0 1 M
0.5 0.49999999999999994 0.0 1 M
0.46875 0.46874999999999994 0.0 1 
0.4375 0.43749999999999994 0.0 1 
0.40625000000000006 0.40625 0.0 1 
0.375 0.37499999999999994 0.0 1 
0.34375 0.34375 0.0 1 
0.3125 0.3125 0.0 1 
0.28125 0.28125 0.0 1 
0.25 0.24999999999999997 0.0 1 
0.21874999999999997 0.21875 0.0 1 
0.1875 0.18749999999999997 0.0 1 
0.15625000000000003 0.15625 0.0 1 
0.125 0.12500000000000003 0.0 1 
0.09374999999999997 0.09374999999999999 0.0 1 
0.0625 0.06250000000000001 0.0 1 
0.03125000000000003 0.031250000000000035 0.0 1 
0.0 0.0 0.0 1 \Gamma
0.0 0.0 0.0 1 \Gamma
0.025 0.024999999999999998 0.025 1 
0.05 0.049999999999999996 0.05 1 
0.075 0.075 0.075 1 
0.1 0.09999999999999999 0.1 1 
0.125 0.125 0.125 1 
0.15 0.15 0.15 1 
0.175 0.175 0.175 1 
0.2 0.19999999999999998 0.2 1 
0.22500000000000003 0.225 0.22500000000000003 1 
0.25 0.25 0.25 1 
0.275 0.275 0.275 1 
0.3 0.3 0.3 1 
0.325 0.325 0.325 1 
0.35 0.35 0.35 1 
0.375 0.37499999999999994 0.375 1 
0.4 0.39999999999999997 0.4 1 
0.425 0.42499999999999993 0.425 1 
0.45000000000000007 0.45 0.45000000000000007 1 
0.47500000000000003 0.475 0.475 1 
0.5 0.5 0.5 1 R
0.5 0.5 0.5 1 R
0.46875000000000006 0.5 0.46875 1 
0.4375 0.49999999999999994 0.4375 1 
0.40625000000000006 0.49999999999999994 0.40625000000000006 1 
0.375 0.49999999999999994 0.375 1 
0.34375 0.49999999999999994 0.34375 1 
0.3125 0.49999999999999994 0.3125 1 
0.28125 0.49999999999999994 0.28125 1 
0.25 0.5 0.25 1 
0.21874999999999997 0.5 0.21874999999999997 1 
0.1875 0.5 0.1875 1 
0.15625000000000003 0.5 0.15625000000000003 1 
0.125 0.5 0.125 1 
0.09374999999999997 0.5 0.09374999999999997 1 
0.0625 0.5 0.0625 1 
0.03125000000000003 0.5 0.03125000000000003 1 
0.0 0.5 0.0 1 X
0.5 0.49999999999999994 0.0 1 M
0.5 0.49999999999999994 0.041666666666666664 1 
0.5 0.49999999999999994 0.08333333333333333 1 
0.5 0.49999999999999994 0.125 1 
0.5 0.49999999999999994 0.16666666666666666 1 
0.5 0.49999999999999994 0.20833333333333334 1 
0.5 0.49999999999999994 0.25 1 
0.5 0.49999999999999994 0.2916666666666667 1 
0.5 0.49999999999999994 0.3333333333333333 1 
0.5 0.49999999999999994 0.375 1 
0.5 0.49999999999999994 0.4166666666666667 1 
0.5 0.5 0.45833333333333326 1 
0.5 0.5 0.5 1 R
