Non SCF run along symmetry lines
167
Reciprocal
0.0 0.0 0.0 1 \Gamma
0.0 0.025 0.0 1 
0.0 0.05 0.0 1 
0.0 0.07500000000000001 0.0 1 
0.0 0.1 0.0 1 
0.0 0.125 0.0 1 
0.0 0.15000000000000002 0.0 1 
0.0 0.17500000000000002 0.0 1 
0.0 0.2 0.0 1 
0.0 0.22500000000000003 0.0 1 
0.0 0.25 0.0 1 
0.0 0.2750000000000001 0.0 1 
0.0 0.30000000000000004 0.0 1 
0.0 0.32500000000000007 0.0 1 
0.0 0.35000000000000003 0.0 1 
0.0 0.37500000000000006 0.0 1 
0.0 0.4 0.0 1 
0.0 0.425 0.0 1 
0.0 0.45000000000000007 0.0 1 
0.0 0.47500000000000003 0.0 1 
0.0 0.5 0.0 1 X
0.0 0.5 0.0 1 X
0.025 0.5 0.0 1 
0.05 0.5 0.0 1 
0.07500000000000001 0.5 0.0 1 
0.1 0.5 0.0 1 
0.125 0.5 0.0 1 
0.15000000000000002 0.5 0.0 1 
0.17500000000000002 0.5 0.0 1 
0.2 0.5 0.0 1 
0.22500000000000003 0.5 0.0 1 
0.25 0.5 0.0 1 
0.2750000000000001 0.5 0.0 1 
0.30000000000000004 0.5 0.0 1 
0.32500000000000007 0.5 0.0 1 
0.35000000000000003 0.5000000000000001 0.0 1 
0.37500000000000006 0.5000000000000001 0.0 1 
0.4 0.5000000000000001 0.0 1 
0.425 0.5000000000000001 0.0 1 
0.45000000000000007 0.5000000000000001 0.0 1 
0.47500000000000003 0.5000000000000001 0.0 1 
0.5 0.5000000000000001 0.0 1 M
0.5 0.5000000000000001 0.0 1 M
0.4814814814814815 0.4814814814814815 0.0 1 
0.462962962962963 0.46296296296296297 0.0 1 
0.4444444444444445 0.44444444444444453 0.0 1 
0.425925925925926 0.425925925925926 0.0 1 
0.40740740740740744 0.40740740740740744 0.0 1 
0.38888888888888895 0.38888888888888895 0.0 1 
0.3703703703703704 0.3703703703703704 0.0 1 
0.3518518518518519 0.35185185185185186 0.0 1 
0.3333333333333334 0.3333333333333334 0.0 1 
0.3148148148148149 0.3148148148148149 0.0 1 
0.29629629629629634 0.29629629629629634 0.0 1 
0.27777777777777785 0.2777777777777779 0.0 1 
0.2592592592592593 0.2592592592592593 0.0 1 
0.24074074074074078 0.24074074074074078 0.0 1 
0.22222222222222224 0.22222222222222227 0.0 1 
0.20370370370370375 0.20370370370370372 0.0 1 
0.18518518518518517 0.1851851851851852 0.0 1 
0.1666666666666667 0.16666666666666674 0.0 1 
0.14814814814814817 0.14814814814814814 0.0 1 
0.12962962962962965 0.12962962962962968 0.0 1 
0.11111111111111112 0.11111111111111113 0.0 1 
0.09259259259259264 0.0925925925925926 0.0 1 
0.07407407407407406 0.07407407407407407 0.0 1 
0.05555555555555559 0.055555555555555594 0.0 1 
0.037037037037037056 0.03703703703703706 0.0 1 
0.018518518518518528 0.01851851851851853 0.0 1 
0.0 0.0 0.0 1 \Gamma
0.0 0.0 0.0 1 \Gamma
0.0 1.925929944387236e-34 0.0625 1 
0.0 3.851859888774472e-34 0.125 1 
7.703719777548943e-34 7.703719777548943e-34 0.18750000000000003 1 
0.0 7.703719777548943e-34 0.25 1 
0.0 1.5407439555097887e-33 0.3125 1 
1.5407439555097887e-33 1.5407439555097887e-33 0.37500000000000006 1 
0.0 0.0 0.4375 1 
0.0 1.5407439555097887e-33 0.5 1 Z
0.0 1.5407439555097887e-33 0.5 1 Z
0.0 0.025 0.5 1 
0.0 0.05 0.5 1 
0.0 0.07500000000000001 0.5 1 
0.0 0.1 0.5 1 
0.0 0.125 0.5 1 
0.0 0.15000000000000002 0.5 1 
0.0 0.17500000000000002 0.5 1 
0.0 0.2 0.5 1 
0.0 0.22500000000000003 0.5 1 
0.0 0.25 0.5 1 
0.0 0.2750000000000001 0.5 1 
0.0 0.30000000000000004 0.5 1 
0.0 0.32500000000000007 0.5 1 
0.0 0.35000000000000003 0.5 1 
0.0 0.37500000000000006 0.5 1 
0.0 0.4 0.5 1 
0.0 0.425 0.5 1 
0.0 0.45000000000000007 0.5 1 
0.0 0.47500000000000003 0.5 1 
0.0 0.5 0.5 1 R
0.0 0.5 0.5 1 R
0.025 0.5 0.5 1 
0.05 0.5 0.5 1 
0.07500000000000001 0.5 0.5 1 
0.1 0.5 0.5 1 
0.125 0.5 0.5 1 
0.15000000000000002 0.5 0.5 1 
0.17500000000000002 0.5 0.5 1 
0.2 0.5 0.5 1 
0.22500000000000003 0.5 0.5 1 
0.25 0.5 0.5 1 
0.2750000000000001 0.5 0.5 1 
0.30000000000000004 0.5 0.5 1 
0.32500000000000007 0.5 0.5 1 
0.35000000000000003 0.5000000000000001 0.5 1 
0.37500000000000006 0.5000000000000001 0.5 1 
0.4 0.5000000000000001 0.5 1 
0.425 0.5000000000000001 0.5 1 
0.45000000000000007 0.5000000000000001 0.5 1 
0.47500000000000003 0.5000000000000001 0.5 1 
0.5 0.5000000000000001 0.5 1 A
0.5 0.5000000000000001 0.5 1 A
0.4814814814814815 0.4814814814814815 0.5 1 
0.462962962962963 0.46296296296296297 0.5 1 
0.4444444444444445 0.44444444444444453 0.5 1 
0.425925925925926 0.425925925925926 0.5 1 
0.40740740740740744 0.40740740740740744 0.5 1 
0.38888888888888895 0.38888888888888895 0.5 1 
0.3703703703703704 0.3703703703703704 0.5 1 
0.3518518518518519 0.35185185185185186 0.5 1 
0.3333333333333334 0.3333333333333334 0.5 1 
0.3148148148148149 0.3148148148148149 0.5 1 
0.29629629629629634 0.29629629629629634 0.5 1 
0.27777777777777785 0.2777777777777779 0.5 1 
0.2592592592592593 0.2592592592592593 0.5 1 
0.24074074074074078 0.24074074074074078 0.5 1 
0.22222222222222224 0.22222222222222227 0.5 1 
0.20370370370370375 0.20370370370370372 0.5 1 
0.18518518518518517 0.1851851851851852 0.5 1 
0.1666666666666667 0.16666666666666674 0.5 1 
0.14814814814814817 0.14814814814814814 0.5 1 
0.12962962962962965 0.12962962962962968 0.5 1 
0.11111111111111113 0.11111111111111115 0.5 1 
0.09259259259259266 0.09259259259259262 0.5 1 
0.07407407407407407 0.07407407407407408 0.5 1 
0.0555555555555556 0.05555555555555561 0.5 1 
0.03703703703703707 0.03703703703703708 0.5 1 
0.01851851851851854 0.018518518518518542 0.5 1 
1.1841165825409672e-17 1.1841165825409672e-17 0.5 1 Z
0.0 0.5 0.0 1 X
0.0 0.5 0.0625 1 
0.0 0.5 0.125 1 
7.703719777548943e-34 0.5 0.18750000000000003 1 
0.0 0.5 0.25 1 
0.0 0.5 0.3125 1 
1.5407439555097887e-33 0.5 0.37500000000000006 1 
0.0 0.5 0.4375 1 
0.0 0.5 0.5 1 R
0.5 0.5000000000000001 0.0 1 M
0.5 0.5000000000000001 0.0625 1 
0.5 0.5000000000000001 0.125 1 
0.5 0.5000000000000001 0.18750000000000003 1 
0.5 0.5000000000000001 0.25 1 
0.5 0.5000000000000001 0.3125 1 
0.5 0.5000000000000001 0.37500000000000006 1 
0.5 0.5000000000000001 0.4375 1 
0.5 0.5000000000000001 0.5 1 A
