Non SCF run along symmetry lines
196
Reciprocal
0.0 0.0 0.0 1 \Gamma
0.017241379310344827 -1.734723475976807e-18 0.0 1 
0.034482758620689655 -3.469446951953614e-18 0.0 1 
0.05172413793103449 0.0 0.0 1 
0.06896551724137931 -6.938893903907228e-18 0.0 1 
0.08620689655172414 0.0 0.0 1 
0.10344827586206898 0.0 0.0 1 
0.12068965517241378 0.0 0.0 1 
0.13793103448275862 -1.3877787807814457e-17 0.0 1 
0.15517241379310345 -1.3877787807814457e-17 0.0 1 
0.1724137931034483 0.0 0.0 1 
0.1896551724137931 0.0 0.0 1 
0.20689655172413796 0.0 0.0 1 
0.22413793103448276 0.0 0.0 1 
0.24137931034482757 0.0 0.0 1 
0.25862068965517243 -2.7755575615628914e-17 0.0 1 
0.27586206896551724 -2.7755575615628914e-17 0.0 1 
0.29310344827586204 -2.7755575615628914e-17 0.0 1 
0.3103448275862069 -2.7755575615628914e-17 0.0 1 
0.3275862068965517 -2.7755575615628914e-17 0.0 1 
0.3448275862068966 0.0 0.0 1 
0.3620689655172413 0.0 0.0 1 
0.3793103448275862 0.0 0.0 1 
0.39655172413793105 -2.7755575615628914e-17 0.0 1 
0.4137931034482759 0.0 0.0 1 
0.43103448275862066 -2.7755575615628914e-17 0.0 1 
0.4482758620689655 0.0 0.0 1 
0.4655172413793103 0.0 0.0 1 
0.48275862068965514 0.0 0.0 1 
0.5 -2.7755575615628914e-17 0.0 1 M
0.5 -2.7755575615628914e-17 0.0 1 M
0.4901960784313725 0.019607843137254916 0.0 1 
0.48039215686274506 0.0392156862745098 0.0 1 
0.47058823529411764 0.05882352941176469 0.0 1 
0.4607843137254902 0.07843137254901958 0.0 1 
0.4509803921568627 0.09803921568627452 0.0 1 
0.4411764705882353 0.11764705882352938 0.0 1 
0.43137254901960786 0.1372549019607843 0.0 1 
0.42156862745098034 0.15686274509803913 0.0 1 
0.4117647058823529 0.1764705882352941 0.0 1 
0.40196078431372545 0.196078431372549 0.0 1 
0.392156862745098 0.21568627450980388 0.0 1 
0.38235294117647056 0.23529411764705882 0.0 1 
0.37254901960784315 0.25490196078431365 0.0 1 
0.3627450980392157 0.27450980392156854 0.0 1 
0.35294117647058826 0.2941176470588235 0.0 1 
0.3431372549019608 0.31372549019607837 0.0 1 
0.3333333333333333 0.33333333333333326 0.0 1 K
0.3333333333333333 0.33333333333333326 0.0 1 K
0.3235294117647059 0.32352941176470584 0.0 1 
0.3137254901960784 0.31372549019607837 0.0 1 
0.30392156862745096 0.3039215686274509 0.0 1 
0.29411764705882354 0.2941176470588235 0.0 1 
0.28431372549019607 0.28431372549019607 0.0 1 
0.2745098039215686 0.2745098039215686 0.0 1 
0.2647058823529412 0.2647058823529411 0.0 1 
0.2549019607843137 0.2549019607843137 0.0 1 
0.24509803921568626 0.2450980392156862 0.0 1 
0.23529411764705882 0.2352941176470588 0.0 1 
0.22549019607843138 0.22549019607843135 0.0 1 
0.2156862745098039 0.21568627450980388 0.0 1 
0.2058823529411765 0.20588235294117646 0.0 1 
0.19607843137254902 0.196078431372549 0.0 1 
0.18627450980392157 0.18627450980392155 0.0 1 
0.17647058823529413 0.1764705882352941 0.0 1 
0.16666666666666666 0.16666666666666663 0.0 1 
0.1568627450980392 0.15686274509803919 0.0 1 
0.14705882352941177 0.14705882352941174 0.0 1 
0.1372549019607843 0.1372549019607843 0.0 1 
0.12745098039215685 0.12745098039215685 0.0 1 
0.11764705882352938 0.11764705882352937 0.0 1 
0.10784313725490195 0.10784313725490194 0.0 1 
0.09803921568627451 0.0980392156862745 0.0 1 
0.08823529411764702 0.08823529411764701 0.0 1 
0.07843137254901963 0.07843137254901962 0.0 1 
0.06862745098039215 0.06862745098039215 0.0 1 
0.05882352941176471 0.058823529411764705 0.0 1 
0.049019607843137275 0.04901960784313727 0.0 1 
0.039215686274509796 0.03921568627450979 0.0 1 
0.029411764705882356 0.029411764705882353 0.0 1 
0.01960784313725492 0.019607843137254916 0.0 1 
0.009803921568627437 0.009803921568627437 0.0 1 
0.0 0.0 0.0 1 \Gamma
0.0 0.0 0.0 1 \Gamma
0.0 0.0 0.05555555555555556 1 
0.0 0.0 0.11111111111111112 1 
0.0 0.0 0.16666666666666666 1 
0.0 0.0 0.22222222222222224 1 
0.0 0.0 0.2777777777777778 1 
0.0 0.0 0.3333333333333333 1 
0.0 0.0 0.38888888888888895 1 
0.0 0.0 0.4444444444444445 1 
0.0 0.0 0.5 1 A
0.0 0.0 0.5 1 A
0.017241379310344827 -1.734723475976807e-18 0.5 1 
0.034482758620689655 -3.469446951953614e-18 0.5 1 
0.05172413793103449 0.0 0.5 1 
0.06896551724137931 -6.938893903907228e-18 0.5 1 
0.08620689655172414 0.0 0.5 1 
0.10344827586206898 0.0 0.5 1 
0.12068965517241378 0.0 0.5 1 
0.13793103448275862 -1.3877787807814457e-17 0.5 1 
0.15517241379310345 -1.3877787807814457e-17 0.5 1 
0.1724137931034483 0.0 0.5 1 
0.1896551724137931 0.0 0.5 1 
0.20689655172413796 0.0 0.5 1 
0.22413793103448276 0.0 0.5 1 
0.24137931034482757 0.0 0.5 1 
0.25862068965517243 -2.7755575615628914e-17 0.5 1 
0.27586206896551724 -2.7755575615628914e-17 0.5 1 
0.29310344827586204 -2.7755575615628914e-17 0.5 1 
0.3103448275862069 -2.7755575615628914e-17 0.5 1 
0.3275862068965517 -2.7755575615628914e-17 0.5 1 
0.3448275862068966 0.0 0.5 1 
0.3620689655172413 0.0 0.5 1 
0.3793103448275862 0.0 0.5 1 
0.39655172413793105 -2.7755575615628914e-17 0.5 1 
0.4137931034482759 0.0 0.5 1 
0.43103448275862066 -2.7755575615628914e-17 0.5 1 
0.4482758620689655 0.0 0.5 1 
0.4655172413793103 0.0 0.5 1 
0.48275862068965514 0.0 0.5 1 
0.5 -2.7755575615628914e-17 0.5 1 L
0.5 -2.7755575615628914e-17 0.5 1 L
0.4901960784313725 0.019607843137254916 0.5 1 
0.48039215686274506 0.0392156862745098 0.5 1 
0.47058823529411764 0.05882352941176469 0.5 1 
0.4607843137254902 0.07843137254901958 0.5 1 
0.4509803921568627 0.09803921568627452 0.5 1 
0.4411764705882353 0.11764705882352938 0.5 1 
0.43137254901960786 0.1372549019607843 0.5 1 
0.42156862745098034 0.15686274509803913 0.5 1 
0.4117647058823529 0.1764705882352941 0.5 1 
0.40196078431372545 0.196078431372549 0.5 1 
0.392156862745098 0.21568627450980388 0.5 1 
0.38235294117647056 0.23529411764705882 0.5 1 
0.37254901960784315 0.25490196078431365 0.5 1 
0.3627450980392157 0.27450980392156854 0.5 1 
0.35294117647058826 0.2941176470588235 0.5 1 
0.3431372549019608 0.31372549019607837 0.5 1 
0.3333333333333333 0.33333333333333326 0.5 1 H
0.3333333333333333 0.33333333333333326 0.5 1 H
0.3235294117647059 0.32352941176470584 0.5 1 
0.3137254901960784 0.31372549019607837 0.5 1 
0.30392156862745096 0.3039215686274509 0.5 1 
0.29411764705882354 0.2941176470588235 0.5 1 
0.28431372549019607 0.28431372549019607 0.5 1 
0.2745098039215686 0.2745098039215686 0.5 1 
0.2647058823529412 0.2647058823529411 0.5 1 
0.2549019607843137 0.2549019607843137 0.5 1 
0.24509803921568626 0.2450980392156862 0.5 1 
0.23529411764705882 0.2352941176470588 0.5 1 
0.22549019607843138 0.22549019607843135 0.5 1 
0.2156862745098039 0.21568627450980388 0.5 1 
0.2058823529411765 0.20588235294117646 0.5 1 
0.19607843137254902 0.196078431372549 0.5 1 
0.18627450980392157 0.18627450980392155 0.5 1 
0.17647058823529413 0.1764705882352941 0.5 1 
0.16666666666666666 0.16666666666666663 0.5 1 
0.1568627450980392 0.15686274509803919 0.5 1 
0.14705882352941177 0.14705882352941174 0.5 1 
0.1372549019607843 0.1372549019607843 0.5 1 
0.12745098039215685 0.12745098039215685 0.5 1 
0.11764705882352938 0.11764705882352937 0.5 1 
0.10784313725490195 0.10784313725490194 0.5 1 
0.09803921568627451 0.0980392156862745 0.5 1 
0.08823529411764702 0.08823529411764701 0.5 1 
0.07843137254901963 0.07843137254901962 0.5 1 
0.06862745098039215 0.06862745098039215 0.5 1 
0.05882352941176471 0.058823529411764705 0.5 1 
0.049019607843137275 0.04901960784313727 0.5 1 
0.039215686274509796 0.03921568627450979 0.5 1 
0.029411764705882356 0.029411764705882353 0.5 1 
0.01960784313725492 0.019607843137254916 0.5 1 
0.009803921568627437 0.009803921568627437 0.5 1 
0.0 0.0 0.5 1 A
0.5 -2.7755575615628914e-17 0.5 1 L
0.5 -2.7755575615628914e-17 0.4444444444444445 1 
0.5 -2.7755575615628914e-17 0.38888888888888895 1 
0.5 -2.7755575615628914e-17 0.33333333333333337 1 
0.5 -2.7755575615628914e-17 0.2777777777777778 1 
0.5 -2.7755575615628914e-17 0.22222222222222224 1 
0.5 -2.7755575615628914e-17 0.1666666666666667 1 
0.5 -2.7755575615628914e-17 0.11111111111111108 1 
0.5 -2.7755575615628914e-17 0.05555555555555557 1 
0.5 -2.7755575615628914e-17 0.0 1 M
0.3333333333333333 0.33333333333333326 0.0 1 K
0.3333333333333333 0.33333333333333326 0.05555555555555556 1 
0.3333333333333333 0.33333333333333326 0.11111111111111112 1 
0.3333333333333333 0.33333333333333326 0.16666666666666666 1 
0.3333333333333333 0.33333333333333326 0.22222222222222224 1 
0.3333333333333333 0.33333333333333326 0.2777777777777778 1 
0.3333333333333333 0.33333333333333326 0.3333333333333333 1 
0.3333333333333333 0.33333333333333326 0.38888888888888895 1 
0.3333333333333333 0.33333333333333326 0.4444444444444445 1 
0.3333333333333333 0.33333333333333326 0.5 1 H
