
ALGO = Fast

ICHARG = 11
LORBIT = 11
NEDOS = 4000

ENCUT = 600
ISMEAR = -5
EDIFF = 1.0E-6
PREC = Accurate
NELM = 200

MAGMOM = 4*5.0 18*0.6
ISPIN = 2

LDAU = True
LDAUTYPE = 2
LDAUL = 2 0
LDAUU = 3.25 0
LDAUJ = 0 0
LDAUPRINT = 1
LMAXMIX = 4

LASPH = True

IVDW = 12

LWAVE = .FALSE.
LCHARG = .FALSE.
LREAL = Auto

NPAR = 4

