As8 S8 O36                              
   1.00000000000000     
     6.5738216626770978    0.0000000000000000    0.0000000000000003
     0.0000000000000010    6.6851784453421903    0.4887587448497052
     0.0000000000000000   -0.1069143099425919   16.4391162685679966
   As   S    O 
     8     8    36
Direct
  0.7484452430532684  0.8071042996304811  0.4708950273970203
  0.7515547569467316  0.8071042996304811  0.9708950273970203
  0.5978038971754174  0.6882824145096720  0.2930397046521662
  0.9021961028245826  0.6882824145096720  0.7930397046521662
  0.0978038971754174  0.3117175854903280  0.2069602953478338
  0.4021961028245826  0.3117175854903280  0.7069602953478338
  0.2484452430532684  0.1928957003695189  0.0291049726029797
  0.2515547569467316  0.1928957003695189  0.5291049726029797
  0.0731242989963476  0.7821048666210189  0.3251099600715222
  0.4268757010036524  0.7821048666210189  0.8251099600715079
  0.7294165106348061  0.3527768307306971  0.4284937564483471
  0.7705834893651939  0.3527768307306971  0.9284937564483471
  0.5731242989963405  0.2178951333789811  0.1748900399284921
  0.9268757010036595  0.2178951333789811  0.6748900399284921
  0.2294165106348061  0.6472231692693029  0.0715062435516458
  0.2705834893651939  0.6472231692693029  0.5715062435516529
  0.1259586069510661  0.9740987152355274  0.2857952972445474
  0.3740413930489339  0.9740987152355274  0.7857952972445403
  0.2349621926788217  0.6331387142012019  0.3269516740128324
  0.2650378073211783  0.6331387142012019  0.8269516740128324
  0.0081891915301071  0.8105462968701076  0.4139771425855940
  0.4918108084698929  0.8105462968701076  0.9139771425855940
  0.8926214583889163  0.6874476706058630  0.2824668108073922
  0.6073785416110837  0.6874476706058630  0.7824668108073922
  0.9327764187292118  0.2987082012482034  0.4057501870390325
  0.5672235812707882  0.2987082012482034  0.9057501870390325
  0.6099125386246840  0.1921173766533926  0.4691984797074369
  0.8900874613753160  0.1921173766533926  0.9691984797074369
  0.7342708990094167  0.5238215114839448  0.4877046369356393
  0.7657291009905833  0.5238215114839448  0.9877046369356393
  0.6052418751569562  0.4308093377214348  0.3539619616888317
  0.8947581248430438  0.4308093377214348  0.8539619616888317
  0.4001235747796628  0.1644892027364619  0.6201926680864744
  0.0998764252203372  0.1644892027364619  0.1201926680864744
  0.9001235747796699  0.8355107972635381  0.8798073319135256
  0.5998764252203301  0.8355107972635381  0.3798073319135256
  0.2657291009905833  0.4761784885160552  0.5122953630643607
  0.2342708990094167  0.4761784885160552  0.0122953630643607
  0.3947581248430438  0.5691906622785652  0.6460380383111683
  0.1052418751569562  0.5691906622785652  0.1460380383111683
  0.3900874613753089  0.8078826233466074  0.5308015202925631
  0.1099125386246911  0.8078826233466074  0.0308015202925631
  0.0672235812707882  0.7012917987517966  0.5942498129609675
  0.4327764187292118  0.7012917987517966  0.0942498129609675
  0.9918108084698929  0.1894537031298924  0.5860228574144060
  0.5081891915301071  0.1894537031298924  0.0860228574144060
  0.1073785416110837  0.3125523293941370  0.7175331891926078
  0.3926214583889163  0.3125523293941370  0.2175331891926078
  0.7650378073211783  0.3668612857987910  0.6730483259871676
  0.7349621926788217  0.3668612857987910  0.1730483259871676
  0.8740413930489410  0.0259012847644726  0.7142047027554597
  0.6259586069510590  0.0259012847644726  0.2142047027554526
 
  0.00000000E+00  0.00000000E+00  0.00000000E+00
  0.00000000E+00  0.00000000E+00  0.00000000E+00
  0.00000000E+00  0.00000000E+00  0.00000000E+00
  0.00000000E+00  0.00000000E+00  0.00000000E+00
  0.00000000E+00  0.00000000E+00  0.00000000E+00
  0.00000000E+00  0.00000000E+00  0.00000000E+00
  0.00000000E+00  0.00000000E+00  0.00000000E+00
  0.00000000E+00  0.00000000E+00  0.00000000E+00
  0.00000000E+00  0.00000000E+00  0.00000000E+00
  0.00000000E+00  0.00000000E+00  0.00000000E+00
  0.00000000E+00  0.00000000E+00  0.00000000E+00
  0.00000000E+00  0.00000000E+00  0.00000000E+00
  0.00000000E+00  0.00000000E+00  0.00000000E+00
  0.00000000E+00  0.00000000E+00  0.00000000E+00
  0.00000000E+00  0.00000000E+00  0.00000000E+00
  0.00000000E+00  0.00000000E+00  0.00000000E+00
  0.00000000E+00  0.00000000E+00  0.00000000E+00
  0.00000000E+00  0.00000000E+00  0.00000000E+00
  0.00000000E+00  0.00000000E+00  0.00000000E+00
  0.00000000E+00  0.00000000E+00  0.00000000E+00
  0.00000000E+00  0.00000000E+00  0.00000000E+00
  0.00000000E+00  0.00000000E+00  0.00000000E+00
  0.00000000E+00  0.00000000E+00  0.00000000E+00
  0.00000000E+00  0.00000000E+00  0.00000000E+00
  0.00000000E+00  0.00000000E+00  0.00000000E+00
  0.00000000E+00  0.00000000E+00  0.00000000E+00
  0.00000000E+00  0.00000000E+00  0.00000000E+00
  0.00000000E+00  0.00000000E+00  0.00000000E+00
  0.00000000E+00  0.00000000E+00  0.00000000E+00
  0.00000000E+00  0.00000000E+00  0.00000000E+00
  0.00000000E+00  0.00000000E+00  0.00000000E+00
  0.00000000E+00  0.00000000E+00  0.00000000E+00
  0.00000000E+00  0.00000000E+00  0.00000000E+00
  0.00000000E+00  0.00000000E+00  0.00000000E+00
  0.00000000E+00  0.00000000E+00  0.00000000E+00
  0.00000000E+00  0.00000000E+00  0.00000000E+00
  0.00000000E+00  0.00000000E+00  0.00000000E+00
  0.00000000E+00  0.00000000E+00  0.00000000E+00
  0.00000000E+00  0.00000000E+00  0.00000000E+00
  0.00000000E+00  0.00000000E+00  0.00000000E+00
  0.00000000E+00  0.00000000E+00  0.00000000E+00
  0.00000000E+00  0.00000000E+00  0.00000000E+00
  0.00000000E+00  0.00000000E+00  0.00000000E+00
  0.00000000E+00  0.00000000E+00  0.00000000E+00
  0.00000000E+00  0.00000000E+00  0.00000000E+00
  0.00000000E+00  0.00000000E+00  0.00000000E+00
  0.00000000E+00  0.00000000E+00  0.00000000E+00
  0.00000000E+00  0.00000000E+00  0.00000000E+00
  0.00000000E+00  0.00000000E+00  0.00000000E+00
  0.00000000E+00  0.00000000E+00  0.00000000E+00
  0.00000000E+00  0.00000000E+00  0.00000000E+00
  0.00000000E+00  0.00000000E+00  0.00000000E+00
