Non SCF run along symmetry lines
143
Reciprocal
0.0 0.0 0.0 1 \Gamma
0.0 0.0 0.0625 1 
0.0 0.0 0.125 1 
0.0 0.0 0.1875 1 
0.0 0.0 0.25 1 
0.0 0.0 0.3125 1 
0.0 0.0 0.375 1 
0.0 0.0 0.43750000000000006 1 
0.0 0.0 0.5 1 Y
0.0 0.0 0.5 1 Y
0.0 0.025716493056557436 0.5041896991065671 1 
0.0 0.05143298611311487 0.5083793982131342 1 
0.0 0.07714947916967231 0.5125690973197012 1 
0.0 0.10286597222622974 0.5167587964262683 1 
0.0 0.1285824652827872 0.5209484955328354 1 
0.0 0.15429895833934462 0.5251381946394024 1 
0.0 0.18001545139590203 0.5293278937459694 1 
0.0 0.2057319444524595 0.5335175928525365 1 
0.0 0.2314484375090169 0.5377072919591036 1 
0.0 0.2571649305655744 0.5418969910656707 1 
0.0 0.2828814236221318 0.5460866901722378 1 
0.0 0.30859791667868924 0.5502763892788048 1 
0.0 0.3343144097352467 0.5544660883853719 1 
0.0 0.36003090279180405 0.558655787491939 1 
0.0 0.38574739584836154 0.5628454865985061 1 
0.0 0.411463888904919 0.567035185705073 1 
0.0 0.43718038196147646 0.5712248848116401 1 
0.0 0.4628968750180338 0.5754145839182072 1 
0.0 0.48861336807459127 0.5796042830247743 1 H
0.0 0.48861336807459127 0.5796042830247743 1 H
0.0 0.4943066840372956 0.5398021415123871 1 
0.0 0.5 0.5 1 C
0.0 0.5 0.5 1 C
0.025 0.5 0.5 1 
0.05 0.5 0.5 1 
0.075 0.5 0.5 1 
0.1 0.5 0.5 1 
0.12499999999999999 0.5 0.5 1 
0.15 0.5 0.5 1 
0.175 0.5 0.5 1 
0.2 0.5 0.5 1 
0.225 0.5 0.5 1 
0.24999999999999997 0.5 0.5 1 
0.275 0.5 0.5 1 
0.3 0.5 0.5 1 
0.32499999999999996 0.5 0.5 1 
0.35 0.5 0.5 1 
0.37499999999999994 0.5 0.5 1 
0.4 0.5 0.5 1 
0.42499999999999993 0.5 0.5 1 
0.45 0.5 0.5 1 
0.4749999999999999 0.5 0.5 1 
0.49999999999999994 0.5 0.5 1 E
0.49999999999999994 0.5 0.5 1 E
0.49999999999999994 0.5056933159627044 0.4601978584876129 1 
0.49999999999999994 0.5113866319254088 0.4203957169752257 1 M_1
0.49999999999999994 0.5113866319254088 0.4203957169752257 1 M_1
0.49999999999999994 0.509759970221779 0.3603391859787649 1 
0.49999999999999994 0.5081333085181492 0.3002826549823041 1 
0.49999999999999994 0.5065066468145193 0.24022612398584328 1 
0.49999999999999994 0.5048799851108895 0.18016959298938248 1 
0.49999999999999994 0.5032533234072597 0.12011306199292163 1 
0.49999999999999994 0.5016266617036298 0.06005653099646084 1 
0.49999999999999994 0.5 -1.3877787807814457e-17 1 A
0.49999999999999994 0.5 0.0 1 A
0.475 0.5 0.0 1 
0.45 0.5 0.0 1 
0.42499999999999993 0.5 0.0 1 
0.39999999999999997 0.5 0.0 1 
0.37499999999999994 0.5 0.0 1 
0.35 0.5 0.0 1 
0.32499999999999996 0.5 0.0 1 
0.3 0.5 0.0 1 
0.275 0.5 0.0 1 
0.24999999999999997 0.5 0.0 1 
0.22499999999999998 0.5 0.0 1 
0.19999999999999998 0.5 0.0 1 
0.175 0.5 0.0 1 
0.15 0.5 0.0 1 
0.125 0.5 0.0 1 
0.09999999999999996 0.5 0.0 1 
0.07500000000000002 0.5 0.0 1 
0.04999999999999998 0.5 0.0 1 
0.025000000000000046 0.5 0.0 1 
0.0 0.5 0.0 1 X
0.0 0.5 0.0 1 X
0.0 0.5016266617036298 0.060056530996460813 1 
0.0 0.5032533234072597 0.12011306199292164 1 
0.0 0.5048799851108895 0.18016959298938245 1 
0.0 0.5065066468145193 0.24022612398584325 1 
0.0 0.5081333085181492 0.3002826549823041 1 
0.0 0.509759970221779 0.3603391859787649 1 
0.0 0.5113866319254088 0.4203957169752257 1 H_1
0.49999999999999994 0.48861336807459127 0.5796042830247743 1 M
0.49999999999999994 0.46289687501803384 0.5754145839182072 1 
0.49999999999999994 0.4371803819614764 0.5712248848116401 1 
0.49999999999999994 0.411463888904919 0.567035185705073 1 
0.49999999999999994 0.38574739584836154 0.5628454865985061 1 
0.49999999999999994 0.3600309027918041 0.558655787491939 1 
0.49999999999999994 0.3343144097352467 0.5544660883853719 1 
0.49999999999999994 0.3085979166786893 0.5502763892788048 1 
0.49999999999999994 0.2828814236221318 0.5460866901722378 1 
0.49999999999999994 0.2571649305655744 0.5418969910656707 1 
0.49999999999999994 0.23144843750901692 0.5377072919591036 1 
0.49999999999999994 0.2057319444524595 0.5335175928525365 1 
0.49999999999999994 0.18001545139590205 0.5293278937459694 1 
0.49999999999999994 0.1542989583393446 0.5251381946394024 1 
0.49999999999999994 0.12858246528278722 0.5209484955328354 1 
0.49999999999999994 0.10286597222622974 0.5167587964262683 1 
0.49999999999999994 0.07714947916967232 0.5125690973197012 1 
0.49999999999999994 0.051432986113114844 0.5083793982131342 1 
0.49999999999999994 0.02571649305655748 0.5041896991065671 1 
0.49999999999999994 0.0 0.5 1 D
0.49999999999999994 0.0 0.5 1 D
0.49999999999999994 0.0 0.43750000000000006 1 
0.49999999999999994 0.0 0.375 1 
0.49999999999999994 0.0 0.3125 1 
0.49999999999999994 0.0 0.25 1 
0.49999999999999994 0.0 0.1875 1 
0.49999999999999994 0.0 0.12500000000000003 1 
0.49999999999999994 0.0 0.06249999999999998 1 
0.49999999999999994 0.0 0.0 1 Z
0.0 0.0 0.5 1 Y
0.025 0.0 0.5 1 
0.05 0.0 0.5 1 
0.075 0.0 0.5 1 
0.1 0.0 0.5 1 
0.12499999999999999 0.0 0.5 1 
0.15 0.0 0.5 1 
0.175 0.0 0.5 1 
0.2 0.0 0.5 1 
0.225 0.0 0.5 1 
0.24999999999999997 0.0 0.5 1 
0.275 0.0 0.5 1 
0.3 0.0 0.5 1 
0.32499999999999996 0.0 0.5 1 
0.35 0.0 0.5 1 
0.37499999999999994 0.0 0.5 1 
0.4 0.0 0.5 1 
0.42499999999999993 0.0 0.5 1 
0.45 0.0 0.5 1 
0.4749999999999999 0.0 0.5 1 
0.49999999999999994 0.0 0.5 1 D
