Non SCF run along symmetry lines
162
Reciprocal
0.0 0.0 0.0 1 \Gamma
0.021739130434782605 0.0 0.021739130434782605 1 
0.04347826086956521 0.0 0.04347826086956521 1 
0.06521739130434781 0.0 0.06521739130434782 1 
0.08695652173913042 0.0 0.08695652173913042 1 
0.10869565217391303 0.0 0.10869565217391303 1 
0.13043478260869562 0.0 0.13043478260869565 1 
0.15217391304347824 0.0 0.15217391304347824 1 
0.17391304347826084 0.0 0.17391304347826084 1 
0.1956521739130435 -3.0814879110195774e-33 0.19565217391304346 1 
0.21739130434782605 0.0 0.21739130434782605 1 
0.23913043478260868 0.0 0.23913043478260868 1 
0.26086956521739124 0.0 0.2608695652173913 1 
0.28260869565217384 0.0 0.2826086956521739 1 
0.3043478260869565 0.0 0.3043478260869565 1 
0.3260869565217391 0.0 0.3260869565217391 1 
0.3478260869565217 0.0 0.3478260869565217 1 
0.36956521739130427 -6.162975822039155e-33 0.36956521739130427 1 
0.391304347826087 -6.162975822039155e-33 0.3913043478260869 1 
0.4130434782608695 0.0 0.4130434782608695 1 
0.4347826086956521 0.0 0.4347826086956521 1 
0.45652173913043465 -6.162975822039155e-33 0.45652173913043465 1 
0.47826086956521735 0.0 0.47826086956521735 1 
0.49999999999999994 0.0 0.49999999999999994 1 X
0.49999999999999994 0.0 0.49999999999999994 1 X
0.49999999999999994 0.02083333333333333 0.5208333333333333 1 
0.49999999999999994 0.04166666666666666 0.5416666666666666 1 
0.49999999999999994 0.062499999999999986 0.5625 1 
0.49999999999999994 0.08333333333333331 0.5833333333333333 1 
0.49999999999999994 0.10416666666666666 0.6041666666666666 1 
0.49999999999999994 0.12499999999999999 0.625 1 
0.49999999999999994 0.14583333333333334 0.6458333333333333 1 
0.49999999999999994 0.16666666666666663 0.6666666666666666 1 
0.49999999999999994 0.18749999999999997 0.6875 1 
0.49999999999999994 0.20833333333333331 0.7083333333333333 1 
0.49999999999999994 0.22916666666666663 0.7291666666666666 1 
0.49999999999999994 0.24999999999999997 0.75 1 W
0.49999999999999994 0.24999999999999997 0.75 1 W
0.486111111111111 0.26388888888888884 0.75 1 
0.47222222222222204 0.27777777777777773 0.7499999999999999 1 
0.45833333333333326 0.29166666666666663 0.75 1 
0.4444444444444443 0.3055555555555555 0.75 1 
0.4305555555555554 0.3194444444444444 0.75 1 
0.4166666666666665 0.33333333333333326 0.75 1 
0.4027777777777776 0.34722222222222215 0.75 1 
0.3888888888888888 0.3611111111111111 0.75 1 
0.37499999999999983 0.37499999999999994 0.75 1 K
0.37499999999999983 0.37499999999999994 0.75 1 K
0.3599999999999999 0.36 0.72 1 
0.34499999999999986 0.345 0.69 1 
0.32999999999999985 0.32999999999999996 0.6599999999999999 1 
0.3149999999999999 0.31499999999999995 0.6299999999999999 1 
0.2999999999999999 0.3 0.6 1 
0.2849999999999999 0.285 0.5700000000000001 1 
0.26999999999999985 0.26999999999999996 0.54 1 
0.2549999999999999 0.25499999999999995 0.51 1 
0.2399999999999999 0.24000000000000002 0.48000000000000004 1 
0.22499999999999995 0.22499999999999998 0.45 1 
0.20999999999999994 0.21 0.42000000000000004 1 
0.19499999999999995 0.19499999999999998 0.39 1 
0.1799999999999999 0.18 0.36 1 
0.1649999999999999 0.16499999999999998 0.32999999999999996 1 
0.14999999999999997 0.15 0.30000000000000004 1 
0.13499999999999993 0.13499999999999998 0.27 1 
0.11999999999999995 0.11999999999999995 0.23999999999999996 1 
0.10499999999999998 0.10500000000000001 0.21000000000000002 1 
0.08999999999999994 0.08999999999999998 0.17999999999999997 1 
0.07499999999999996 0.075 0.14999999999999997 1 
0.05999999999999998 0.060000000000000005 0.12000000000000001 1 
0.045 0.04500000000000001 0.09000000000000002 1 
0.029999999999999964 0.029999999999999978 0.059999999999999956 1 
0.015000000000000032 0.014999999999999989 0.030000000000000027 1 
0.0 0.0 0.0 1 \Gamma
0.0 0.0 0.0 1 \Gamma
0.024999999999999994 0.024999999999999998 0.025 1 
0.04999999999999999 0.049999999999999996 0.05 1 
0.07499999999999998 0.07499999999999998 0.075 1 
0.09999999999999998 0.09999999999999999 0.1 1 
0.12499999999999997 0.12499999999999999 0.12499999999999999 1 
0.14999999999999997 0.14999999999999997 0.15 1 
0.17499999999999993 0.175 0.175 1 
0.19999999999999996 0.19999999999999998 0.2 1 
0.22499999999999995 0.22499999999999998 0.225 1 
0.24999999999999994 0.24999999999999997 0.24999999999999997 1 
0.2749999999999999 0.27499999999999997 0.27499999999999997 1 
0.29999999999999993 0.29999999999999993 0.3 1 
0.32499999999999996 0.32499999999999996 0.325 1 
0.34999999999999987 0.35 0.35 1 
0.3749999999999999 0.37499999999999994 0.375 1 
0.3999999999999999 0.39999999999999997 0.4 1 
0.42499999999999993 0.42499999999999993 0.425 1 
0.4499999999999999 0.44999999999999996 0.45 1 
0.47499999999999987 0.4749999999999999 0.475 1 
0.4999999999999999 0.49999999999999994 0.49999999999999994 1 L
0.4999999999999999 0.49999999999999994 0.49999999999999994 1 L
0.5089285714285713 0.48214285714285704 0.5089285714285713 1 
0.5178571428571428 0.46428571428571425 0.5178571428571428 1 
0.5267857142857142 0.4464285714285714 0.5267857142857142 1 
0.5357142857142856 0.4285714285714285 0.5357142857142856 1 
0.5446428571428571 0.4107142857142857 0.5446428571428571 1 
0.5535714285714285 0.3928571428571428 0.5535714285714285 1 
0.5624999999999999 0.375 0.5624999999999999 1 
0.5714285714285714 0.3571428571428571 0.5714285714285714 1 
0.5803571428571428 0.3392857142857142 0.5803571428571428 1 
0.5892857142857142 0.3214285714285714 0.5892857142857142 1 
0.5982142857142857 0.30357142857142855 0.5982142857142857 1 
0.607142857142857 0.2857142857142857 0.607142857142857 1 
0.6160714285714286 0.2678571428571428 0.6160714285714286 1 
0.625 0.25 0.6249999999999999 1 U
0.625 0.25 0.6249999999999999 1 U
0.611111111111111 0.24999999999999997 0.6388888888888888 1 
0.5972222222222222 0.24999999999999997 0.6527777777777777 1 
0.5833333333333333 0.24999999999999994 0.6666666666666666 1 
0.5694444444444444 0.25 0.6805555555555556 1 
0.5555555555555555 0.24999999999999994 0.6944444444444444 1 
0.5416666666666666 0.24999999999999997 0.7083333333333333 1 
0.5277777777777777 0.24999999999999997 0.7222222222222222 1 
0.5138888888888888 0.24999999999999994 0.736111111111111 1 
0.49999999999999994 0.24999999999999997 0.75 1 W
0.49999999999999994 0.24999999999999997 0.75 1 W
0.4999999999999999 0.2647058823529411 0.7352941176470588 1 
0.49999999999999994 0.2794117647058823 0.7205882352941176 1 
0.4999999999999999 0.2941176470588235 0.7058823529411764 1 
0.5 0.30882352941176466 0.6911764705882353 1 
0.49999999999999994 0.32352941176470584 0.676470588235294 1 
0.49999999999999994 0.338235294117647 0.6617647058823529 1 
0.4999999999999999 0.3529411764705882 0.6470588235294117 1 
0.4999999999999999 0.3676470588235293 0.6323529411764706 1 
0.4999999999999999 0.38235294117647056 0.6176470588235293 1 
0.4999999999999999 0.3970588235294117 0.6029411764705881 1 
0.5 0.4117647058823529 0.588235294117647 1 
0.4999999999999999 0.42647058823529405 0.5735294117647058 1 
0.49999999999999994 0.4411764705882352 0.5588235294117647 1 
0.4999999999999999 0.4558823529411764 0.5441176470588235 1 
0.4999999999999999 0.47058823529411764 0.5294117647058822 1 
0.4999999999999999 0.48529411764705876 0.5147058823529411 1 
0.4999999999999999 0.49999999999999994 0.49999999999999994 1 L
0.4999999999999999 0.49999999999999994 0.49999999999999994 1 L
0.49107142857142844 0.4910714285714285 0.5178571428571428 1 
0.482142857142857 0.48214285714285704 0.5357142857142856 1 
0.4732142857142856 0.4732142857142856 0.5535714285714285 1 
0.4642857142857142 0.4642857142857142 0.5714285714285714 1 
0.4553571428571427 0.4553571428571428 0.5892857142857142 1 
0.4464285714285713 0.4464285714285714 0.6071428571428571 1 
0.4374999999999999 0.43749999999999994 0.625 1 
0.42857142857142844 0.42857142857142855 0.6428571428571428 1 
0.419642857142857 0.4196428571428571 0.6607142857142857 1 
0.4107142857142856 0.4107142857142857 0.6785714285714285 1 
0.4017857142857142 0.4017857142857143 0.6964285714285714 1 
0.39285714285714274 0.39285714285714285 0.7142857142857142 1 
0.3839285714285713 0.38392857142857134 0.7321428571428571 1 
0.37499999999999983 0.37499999999999994 0.75 1 K
0.625 0.25 0.6249999999999999 1 U
0.611111111111111 0.2222222222222222 0.611111111111111 1 
0.5972222222222222 0.19444444444444442 0.5972222222222222 1 
0.5833333333333333 0.16666666666666669 0.5833333333333333 1 
0.5694444444444444 0.1388888888888889 0.5694444444444444 1 
0.5555555555555555 0.1111111111111111 0.5555555555555555 1 
0.5416666666666666 0.08333333333333333 0.5416666666666666 1 
0.5277777777777777 0.05555555555555555 0.5277777777777777 1 
0.5138888888888888 0.027777777777777783 0.5138888888888888 1 
0.49999999999999994 0.0 0.49999999999999994 1 X
