Sb8 O12                                 
   1.00000000000000     
     6.7621380695548385    0.0000000027939491    3.9041228009403173
     2.2540456779295113    6.3754053814175737    3.9041228033460413
    -0.0000000110197020   -0.0000000078467351    7.8082445724284728
   Sb   O 
     8    12
Direct
  0.7287513312945890  0.2570825528730225  0.2570825529313367
  0.7429174470989395  0.7429174471160991  0.7429174470983213
  0.7429174470686633  0.7429174470855386  0.2712486687474751
  0.7429174471269775  0.2712486686713760  0.7429174470855386
  0.2570825529313367  0.2570825529144614  0.7287513312525249
  0.2570825528730225  0.7287513313286240  0.2570825529144614
  0.2570825529010605  0.2570825528839009  0.2570825529016787
  0.2712486687054110  0.7429174471269775  0.7429174470686633
  0.8167218917533461  0.4332781082342905  0.4332781082541288
  0.5667218917533461  0.1832781082342905  0.1832781082541288
  0.4332781082387669  0.8167218917577515  0.4332781082497306
  0.4332781082539725  0.4332781082450978  0.8167218917425316
  0.8167218917460275  0.8167218917549022  0.4332781082574684
  0.8167218917612331  0.4332781082422485  0.8167218917502694
  0.5667218917612331  0.1832781082422485  0.5667218917502694
  0.1832781082387669  0.5667218917577515  0.1832781082497306
  0.4332781082466610  0.8167218917657095  0.8167218917458712
  0.1832781082539725  0.1832781082450978  0.5667218917425316
  0.5667218917460275  0.5667218917549022  0.1832781082574684
  0.1832781082466539  0.5667218917657095  0.5667218917458712
 
  0.00000000E+00  0.00000000E+00  0.00000000E+00
  0.00000000E+00  0.00000000E+00  0.00000000E+00
  0.00000000E+00  0.00000000E+00  0.00000000E+00
  0.00000000E+00  0.00000000E+00  0.00000000E+00
  0.00000000E+00  0.00000000E+00  0.00000000E+00
  0.00000000E+00  0.00000000E+00  0.00000000E+00
  0.00000000E+00  0.00000000E+00  0.00000000E+00
  0.00000000E+00  0.00000000E+00  0.00000000E+00
  0.00000000E+00  0.00000000E+00  0.00000000E+00
  0.00000000E+00  0.00000000E+00  0.00000000E+00
  0.00000000E+00  0.00000000E+00  0.00000000E+00
  0.00000000E+00  0.00000000E+00  0.00000000E+00
  0.00000000E+00  0.00000000E+00  0.00000000E+00
  0.00000000E+00  0.00000000E+00  0.00000000E+00
  0.00000000E+00  0.00000000E+00  0.00000000E+00
  0.00000000E+00  0.00000000E+00  0.00000000E+00
  0.00000000E+00  0.00000000E+00  0.00000000E+00
  0.00000000E+00  0.00000000E+00  0.00000000E+00
  0.00000000E+00  0.00000000E+00  0.00000000E+00
  0.00000000E+00  0.00000000E+00  0.00000000E+00
