Bi8 O12                                 
   1.00000000000000     
     6.8490434379842640    0.0000000000000000    3.9542970726116549
     2.2830144793280884    6.4573400795198621    3.9542970726116549
     0.0000000000000000    0.0000000000000000    7.9085941452233079
   Bi   O 
     8    12
Direct
  0.8765411184687579  0.8765411184687579  0.3703756345937137
  0.8765411184687579  0.3703756345937137  0.8765411184687579
  0.3703756345937137  0.8765411184687579  0.8765411184687579
  0.8765411184687579  0.8765411184687579  0.8765411184687579
  0.3734588815312421  0.3734588815312421  0.8796243654062863
  0.3734588815312421  0.8796243654062863  0.3734588815312421
  0.8796243654062863  0.3734588815312421  0.3734588815312421
  0.3734588815312421  0.3734588815312421  0.3734588815312421
  0.0454475045684930  0.0454475045684930  0.4545524954315070
  0.4545524954315070  0.0454475045684930  0.4545524954315070
  0.0454475045684930  0.4545524954315070  0.4545524954315070
  0.4545524954315070  0.4545524954315070  0.0454475045684930
  0.0454475045684930  0.4545524954315070  0.0454475045684930
  0.4545524954315070  0.0454475045684930  0.0454475045684930
  0.2045524954315070  0.2045524954315070  0.7954475045684930
  0.7954475045684930  0.2045524954315070  0.7954475045684930
  0.2045524954315070  0.7954475045684930  0.7954475045684930
  0.7954475045684930  0.7954475045684930  0.2045524954315070
  0.2045524954315070  0.7954475045684930  0.2045524954315070
  0.7954475045684930  0.2045524954315070  0.2045524954315070
 
  0.00000000E+00  0.00000000E+00  0.00000000E+00
  0.00000000E+00  0.00000000E+00  0.00000000E+00
  0.00000000E+00  0.00000000E+00  0.00000000E+00
  0.00000000E+00  0.00000000E+00  0.00000000E+00
  0.00000000E+00  0.00000000E+00  0.00000000E+00
  0.00000000E+00  0.00000000E+00  0.00000000E+00
  0.00000000E+00  0.00000000E+00  0.00000000E+00
  0.00000000E+00  0.00000000E+00  0.00000000E+00
  0.00000000E+00  0.00000000E+00  0.00000000E+00
  0.00000000E+00  0.00000000E+00  0.00000000E+00
  0.00000000E+00  0.00000000E+00  0.00000000E+00
  0.00000000E+00  0.00000000E+00  0.00000000E+00
  0.00000000E+00  0.00000000E+00  0.00000000E+00
  0.00000000E+00  0.00000000E+00  0.00000000E+00
  0.00000000E+00  0.00000000E+00  0.00000000E+00
  0.00000000E+00  0.00000000E+00  0.00000000E+00
  0.00000000E+00  0.00000000E+00  0.00000000E+00
  0.00000000E+00  0.00000000E+00  0.00000000E+00
  0.00000000E+00  0.00000000E+00  0.00000000E+00
  0.00000000E+00  0.00000000E+00  0.00000000E+00
