V4 F18                                  
   1.00000000000000     
     5.0105005511239762   -0.0000000152064104    0.0000000000000003
    -2.5052498827985419    4.3392209897113538    0.0000000000000003
     0.0000000000000000   -0.0000000000000001   14.3697359876477879
   V    F 
     4    18
Direct
  0.0000000000000000  0.0000000000000000  0.3550726456574083
  0.0000000000000000  0.0000000000000000  0.1523067367370459
  0.0000000000000000  0.0000000000000000  0.6523067367370459
  0.0000000000000000  0.0000000000000000  0.8550726456574083
  0.9999999999563514  0.6965145337947547  0.5934862926148057
  0.3034854662052453  0.0000000000436486  0.0934862926148057
  0.0000000000436486  0.3034854662052453  0.0934862926148057
  0.3034854662488939  0.3034854662488939  0.5934862926148057
  0.2770907538942282  0.2770907538942282  0.2453038276149186
  0.6965145337947547  0.9999999999563514  0.5934862926148057
  0.3159936672747250  0.3159936672747250  0.9087904189721172
  0.6965145337510990  0.6965145337510990  0.0934862926148057
  0.2770907538567826  0.0000000000374385  0.7453038276149186
  0.3159936672311119  0.0000000000436273  0.4087904189721101
  0.7229092461057718  0.7229092461057718  0.7453038276149186
  0.6840063327252750  0.6840063327252750  0.4087904189721101
  0.9999999999563727  0.6840063327688881  0.9087904189721172
  0.9999999999625615  0.7229092461432174  0.2453038276149186
  0.6840063327688881  0.9999999999563727  0.9087904189721172
  0.7229092461432174  0.9999999999625615  0.2453038276149186
  0.0000000000436273  0.3159936672311119  0.4087904189721101
  0.0000000000374385  0.2770907538567826  0.7453038276149186
 
  0.00000000E+00  0.00000000E+00  0.00000000E+00
  0.00000000E+00  0.00000000E+00  0.00000000E+00
  0.00000000E+00  0.00000000E+00  0.00000000E+00
  0.00000000E+00  0.00000000E+00  0.00000000E+00
  0.00000000E+00  0.00000000E+00  0.00000000E+00
  0.00000000E+00  0.00000000E+00  0.00000000E+00
  0.00000000E+00  0.00000000E+00  0.00000000E+00
  0.00000000E+00  0.00000000E+00  0.00000000E+00
  0.00000000E+00  0.00000000E+00  0.00000000E+00
  0.00000000E+00  0.00000000E+00  0.00000000E+00
  0.00000000E+00  0.00000000E+00  0.00000000E+00
  0.00000000E+00  0.00000000E+00  0.00000000E+00
  0.00000000E+00  0.00000000E+00  0.00000000E+00
  0.00000000E+00  0.00000000E+00  0.00000000E+00
  0.00000000E+00  0.00000000E+00  0.00000000E+00
  0.00000000E+00  0.00000000E+00  0.00000000E+00
  0.00000000E+00  0.00000000E+00  0.00000000E+00
  0.00000000E+00  0.00000000E+00  0.00000000E+00
  0.00000000E+00  0.00000000E+00  0.00000000E+00
  0.00000000E+00  0.00000000E+00  0.00000000E+00
  0.00000000E+00  0.00000000E+00  0.00000000E+00
  0.00000000E+00  0.00000000E+00  0.00000000E+00
